7
frame 0 | Written by MDAnalysis XYZWriter (release 2.10.0)
       O    -3.23938   -0.00000   -0.44460
       H    -3.62388    0.00000    0.45039
       C    -0.27281    0.00000    0.00219
      Cl     1.56007   -0.00000    0.65368
       H    -0.73626    0.88395    0.38181
       H    -0.73626   -0.88395    0.38181
       H    -0.19162    0.00000   -1.06397
7
frame 0 | Written by MDAnalysis XYZWriter (release 2.10.0)
       O    -2.83063   -0.00000   -0.39096
       H    -3.23854    0.00000    0.48950
       C    -0.31755    0.00000    0.04053
      Cl     1.74568    0.00000    0.41044
       H    -0.61042    0.90512    0.51515
       H    -0.61042   -0.90512    0.51515
       H    -0.34436    0.00000   -1.02250
7
frame 0 | Written by MDAnalysis XYZWriter (release 2.10.0)
       O    -2.58721   -0.00000   -0.34959
       H    -2.93031    0.00000    0.54632
       C    -0.51589    0.00000   -0.00385
      Cl     2.29267   -0.00000    0.55283
       H    -0.42821    0.91474    0.53598
       H    -0.42821   -0.91474    0.53598
       H    -0.21971    0.00000   -1.02704
7
frame 0 | Written by MDAnalysis XYZWriter (release 2.10.0)
       O    -2.28709   -0.00054   -0.14412
       H    -2.57088   -0.00064    0.76622
       C    -0.63710    0.00051   -0.14015
      Cl     2.57009   -0.00032    0.91957
       H    -0.30446    0.88844    0.36045
       H    -0.30604   -0.88772    0.36092
       H    -0.39371    0.00026   -1.18409
7
frame 0 | Written by MDAnalysis XYZWriter (release 2.10.0)
       O    -1.08427   -0.00011    0.67102
       H    -0.35388   -0.00051    1.30359
       C    -0.85035    0.00046   -0.50596
      Cl     1.58963   -0.00134    2.35517
       H    -0.28117    0.86746   -0.88864
       H    -0.28090   -0.86598   -0.88947
       H    -1.76824    0.00060   -1.10475

