22
C-O distance = 1.50000000 Angstrom
O     -0.17856500    -0.84907887    -0.17780893
H     -0.87041609    -1.28701987    -0.69072756
C      1.16409491    -1.36171480    -0.60730721
Cl    -1.82558553    -2.07655131    -2.61526918
H      1.24457434    -2.40710245    -0.35351364
H      1.27244358    -1.22437252    -1.67068645
H      1.88381108    -0.77772771    -0.05972342
O     -0.37264294     1.77551363    -1.22136689
H     -0.90196906     1.77227844    -2.02326222
H     -0.32206078     0.89105949    -0.85188848
O      0.36483047     3.14545025     0.91258474
H      0.00663662     2.79725099     0.07644202
H      1.21477608     3.54622650     0.78513721
O      0.37594442     0.62123963     2.22333191
H      0.34386231     1.54159152     1.95024125
H      0.01975756     0.04409325     1.54692749
O      1.45228488    -0.26823958     4.57882037
H      0.96583796     0.09543432     3.82590512
H      2.18417185    -0.78545422     4.26705078
O     -1.91863963     1.03005187    -3.39906537
H     -1.79284059     0.08096451    -3.26994235
H     -2.81286625     1.20712147    -3.66088301
