22
C-O distance = 2.83438158 Angstrom
O     -1.75677173     0.78846201    -0.20090865
H     -2.67792469     1.02191128    -0.18351594
C      0.80961164    -0.21463101    -0.86513730
Cl     2.57977326    -0.94782683    -0.73655372
H      0.47131177    -0.10952578     0.14074312
H      0.22694764    -0.91638895    -1.42013838
H      0.93392772     0.72571517    -1.36108999
O     -0.39706979     2.91986278    -0.44914568
H     -0.79408229     3.48629016    -1.10312995
H     -0.92240650     2.05270397    -0.34718160
O      2.33956904     3.15898692    -0.17476585
H      1.37767391     3.12825504    -0.23815399
H      2.70245679     2.29124849    -0.02326566
O     -0.71800945     0.38085926     2.08424994
H     -0.34408273     1.20953727     2.35895805
H     -1.20072965     0.46813435     1.21814756
O      0.97389550    -1.97893105     2.78555102
H      0.35825642    -1.23946340     2.67778323
H      1.57837780    -2.03632521     2.05603943
O     -1.92690354    -1.48124278    -1.66016836
H     -2.17427141    -2.22280086    -1.12863203
H     -1.82165124    -0.65838421    -1.13244345
