22
C-O distance = 2.70522054 Angstrom
O     -1.42073924     0.73634964    -0.15134075
H     -2.30067975     0.93026018     0.17706920
C      0.87765493    -0.18972744    -1.23669031
Cl     2.65486743    -0.68035197    -1.82625167
H      0.91339796    -0.26022532    -0.17312378
H      0.22467312    -0.90277799    -1.69224000
H      0.73769637     0.80845647    -1.58728835
O     -0.41491329     2.92962419    -1.00467172
H     -0.75052605     3.20589910    -1.84730240
H     -0.83473982     2.08165269    -0.67073712
O      1.87784880     3.61774902     0.35647865
H      1.03784459     3.51449789    -0.10828902
H      2.44210142     2.87552787     0.17678464
O     -0.03647729     0.24969277     1.98103188
H      0.44651473     1.03163244     2.21956965
H     -0.59833853     0.40028979     1.17224601
O      0.20805345    -2.20618276     3.22140330
H      0.05222240    -1.31892289     2.87106083
H      0.80217455    -2.68030406     2.65361964
O     -2.10815137    -1.48490808    -1.51061359
H     -2.17146400    -2.16907581    -0.85502341
H     -1.85844964    -0.63721508    -1.09037298
