22
C-O distance = 1.57500000 Angstrom
O     -0.32577293    -0.99071804    -0.14794145
H     -0.94942882    -1.32580142    -0.80618572
C      1.10877742    -1.37053735    -0.67560385
Cl    -1.83772900    -1.91321838    -2.88291112
H      1.33337247    -2.35440818    -0.30252859
H      1.06364757    -1.35357380    -1.74997119
H      1.76518156    -0.62358755    -0.26666653
O     -0.71164705     1.64476573    -1.02905944
H     -1.11044907     1.69783947    -1.90420582
H     -0.64974142     0.74198949    -0.71072806
O      0.46202505     3.02832280     0.83327774
H     -0.07349987     2.65665910     0.10200968
H      1.26025448     3.41877014     0.50298800
O      0.63375375     0.60929328     2.23687956
H      0.60292625     1.51069464     1.89777075
H      0.16892931     0.00454534     1.66079881
O      1.46720899    -0.12258880     4.76145663
H      1.06965177     0.21412872     3.94604362
H      2.15792577    -0.73602620     4.54574438
O     -1.80934083     1.21997093    -3.50464448
H     -1.73737053     0.26314608    -3.38982821
H     -2.63767528     1.44761086    -3.90559040
