22
C-O distance = 2.55009476 Angstrom
O     -1.34467521     0.60452729    -0.40920954
H     -2.19113639     0.79190393     0.00048442
C      0.79600789    -0.25621100    -1.49529827
Cl     2.48711395    -0.81206707    -2.28805532
H      0.94300747    -0.36962296    -0.44515695
H      0.07280805    -0.92015942    -1.91223668
H      0.68369785     0.75811389    -1.80198653
O     -0.30648478     2.85324778    -0.91776848
H     -0.70775316     3.36768348    -1.60380531
H     -0.75733323     1.95693206    -0.75821932
O      1.52621523     2.94592572     1.02300587
H      0.84952690     3.07700509     0.33848033
H      2.32122066     2.59451631     0.64045005
O      0.16198819     0.47808446     1.81949704
H      0.63955741     1.30621714     1.84432797
H     -0.41824633     0.44270701     1.03380895
O      0.44294793    -1.60937415     3.53984480
H      0.27509143    -0.80260547     3.03015674
H      0.92827381    -2.22438651     3.00403563
O     -2.31013457    -1.54101437    -1.70675260
H     -2.23439729    -2.25040331    -1.08003568
H     -1.95044696    -0.71556817    -1.32237726
