22
C-O distance = 1.72514689 Angstrom
O     -0.89546430    -0.41719094    -0.32196361
H     -1.47444008    -0.88782081     0.27176510
C      0.15464128    -1.52226883    -1.12956061
Cl     1.62337206    -3.31268791    -3.01788762
H      0.76174266    -1.94234391    -0.35537102
H     -0.50008028    -2.21402685    -1.61348999
H      0.67372674    -0.86753228    -1.79322546
O     -0.76057288     2.32015320    -0.85699070
H     -1.16110138     2.37823245    -1.71859893
H     -0.80186619     1.40877074    -0.55519293
O      0.81912912     3.38836571     1.01398265
H      0.18825369     3.20631141     0.30170169
H      1.65538375     3.68237265     0.67708067
O      0.63603512     0.76400188     2.01662504
H      0.75947264     1.70843515     1.88941347
H      0.23799221     0.36215828     1.24905997
O      1.01951083    -0.85272961     4.20873022
H      0.81337597    -0.20984475     3.51966645
H      1.79504571    -1.34601257     3.97251799
O     -1.93456001     0.58062059    -2.83452425
H     -1.57489169     0.10990860    -3.57697464
H     -1.76029378     0.12392848    -2.01085972
