22
C-O distance = 1.80003759 Angstrom
O     -0.92370893    -0.37013294    -0.34091801
H     -1.51687990    -0.83291445     0.24579075
C      0.19600016    -1.54124404    -1.12506447
Cl     1.79416384    -3.35917103    -2.69929455
H      0.76775238    -1.91725035    -0.30555520
H     -0.47617354    -2.22879327    -1.58666276
H      0.70773511    -0.87545502    -1.78133888
O     -0.78796914     2.36127722    -0.83164679
H     -1.21775790     2.43830096    -1.67711432
H     -0.82508911     1.44315421    -0.54595182
O      0.83776124     3.38819660     1.02163069
H      0.18882024     3.22199966     0.32181644
H      1.67972660     3.64132144     0.66591661
O      0.62049690     0.74132254     1.98463415
H      0.75637572     1.68567563     1.87453565
H      0.19830476     0.36098736     1.21801555
O      1.06299025    -0.89722994     4.14743232
H      0.83785948    -0.24917397     3.46898197
H      1.81525056    -1.40692290     3.87361499
O     -2.00162697     0.61099181    -2.78924307
H     -1.66365178     0.15099248    -3.54775814
H     -1.77022722     0.16512413    -1.97074005
