22
C-O distance = 2.32719300 Angstrom
O     -1.19901427     0.31435716    -0.36384335
H     -1.96053841     0.23413567     0.21313861
C      0.75428841    -0.57627290    -1.26229425
Cl     2.44492452    -1.23341083    -2.09754699
H      0.84677816    -0.91911060    -0.26024784
H      0.00953488    -1.04967338    -1.85361878
H      0.82719980     0.47731875    -1.38969079
O     -0.47608052     2.69309274    -0.82322752
H     -0.91564078     3.14384160    -1.53032463
H     -0.83488090     1.75929925    -0.65585587
O      1.51783555     3.04595152     0.90447307
H      0.76914883     3.07282601     0.28322065
H      2.33840635     2.91906571     0.44509423
O      0.41886699     0.56874629     1.87463715
H      0.88410151     1.40322264     1.81248278
H     -0.14741941     0.43674047     1.09966773
O      0.49455449    -1.35349053     3.79571964
H      0.38796152    -0.59187499     3.20691269
H      1.14578680    -1.94084269     3.43257718
O     -2.54018940    -0.94061877    -2.38314871
H     -2.47221595    -1.86413748    -2.17361146
H     -2.04758122    -0.40758637    -1.73140068
