22
C-O distance = 1.35000000 Angstrom
O      0.11202161    -0.89800075    -0.33423457
H     -0.60832230    -1.25960887    -0.86986579
C      1.27465381    -1.57702458    -0.43278916
Cl    -1.81440614    -1.97100171    -2.58454975
H      1.18985956    -2.59730678    -0.06923505
H      1.64113749    -1.62357737    -1.45362169
H      2.01672000    -1.07164353     0.17022155
O     -0.13084143     1.78115934    -1.32624826
H     -0.73459090     1.76349067    -2.07482239
H      0.04667598     0.89103124    -1.01771945
O      0.13461830     3.15800928     0.91756070
H     -0.04665636     2.78345823     0.03658378
H      0.91063976     3.70259542     0.91419860
O      0.27581281     0.61279850     2.13047780
H      0.18572001     1.53944665     1.89281648
H      0.03431332     0.04180882     1.40156883
O      1.38432855    -0.27530692     4.46958354
H      0.87960180     0.07632380     3.72314902
H      2.15076702    -0.73339284     4.14837889
O     -1.99151585     1.14358289    -3.29712509
H     -1.85285789     0.18815432    -3.27814337
H     -2.90450824     1.33611342    -3.12283163
