22
C-O distance = 2.40058446 Angstrom
O     -1.23627484     0.45944980    -0.41446871
H     -2.03686220     0.54502507     0.10768542
C      0.76599064    -0.31745010    -1.48692629
Cl     2.44133072    -0.85220467    -2.37919591
H      0.93477946    -0.57635521    -0.46830592
H      0.02306414    -0.89415509    -1.98557272
H      0.71594629     0.72905584    -1.67263871
O     -0.37757707     2.79197667    -0.88251142
H     -0.77592568     3.26590577    -1.59888242
H     -0.77457111     1.87158180    -0.72980764
O      1.50716320     2.97747386     1.00312620
H      0.80771489     3.07785741     0.33637319
H      2.30612633     2.65632083     0.60274556
O      0.30088377     0.46607513     1.84157191
H      0.73368446     1.31914691     1.84787409
H     -0.25246732     0.37358202     1.04631562
O      0.49382864    -1.45065362     3.76108394
H      0.34461276    -0.70136308     3.16530262
H      1.05199543    -2.08686059     3.33150414
O     -2.43723802    -1.32138681    -2.05362139
H     -2.42841911    -2.12828539    -1.55300902
H     -1.99494120    -0.61174831    -1.54788501
