22
C-O distance = 1.20000000 Angstrom
O      0.30325039    -0.95634680    -0.43024242
H     -0.43206788    -1.29345838    -0.96423157
C      1.33737799    -1.56387901    -0.39171036
Cl    -1.79144436    -1.92794174    -2.51747715
H      1.27231239    -2.58121593     0.02221717
H      1.84162968    -1.70198553    -1.35933569
H      2.07561547    -1.06366453     0.23544870
O     -0.07409887     1.77296314    -1.35985549
H     -0.72206758     1.75116282    -2.07137855
H      0.16778751     0.88562871    -1.09494569
O      0.11340455     3.13232038     0.90129672
H     -0.02954448     2.75954229     0.01246631
H      0.85916830     3.71683526     0.92528010
O      0.24173048     0.59369530     2.08624475
H      0.15426790     1.52226953     1.85265084
H      0.04551399     0.02774764     1.34234290
O      1.32992157    -0.28793048     4.44178636
H      0.82801062     0.05492095     3.69012883
H      2.11283448    -0.72348852     4.12895449
O     -2.05063142     1.17771482    -3.21838208
H     -1.91818167     0.22138265    -3.21743815
H     -2.94710442     1.37737290    -2.97865801
