22
C-O distance = 2.93984832 Angstrom
O     -1.88838179     0.88783180    -0.39532940
H     -2.75340078     1.25672276    -0.54167497
C      0.66482889    -0.55576517    -0.19570179
Cl     2.57817241    -0.57030328    -0.01614758
H      0.30213100     0.06184908     0.59802317
H      0.35696267    -1.57755796    -0.10491756
H      0.46344234    -0.14691058    -1.16154697
O     -0.34909392     2.73367053    -0.46169655
H     -0.82849842     3.52174047    -0.68491423
H     -0.96463194     1.93540782    -0.47607194
O      2.33787519     3.36623478    -0.32033070
H      1.40410722     3.13237471    -0.40097359
H      2.88825950     2.60416648    -0.18883955
O     -1.19392415     1.17835375     2.17609193
H     -0.65759509     1.95166866     2.02093149
H     -1.59159240     0.93973690     1.31804716
O      1.57726268    -2.85030487     2.53165013
H      0.92286414    -2.20936483     2.78389777
H      2.22831779    -2.45480750     1.96267522
O     -2.03517802    -1.35839624    -1.85966080
H     -2.30551414    -2.08225163    -1.30706200
H     -1.93148098    -0.50279324    -1.37646657
