22
C-O distance = 2.18129155 Angstrom
O     -0.97468181    -0.19612401    -0.32947682
H     -1.62756370    -0.61476021     0.23142450
C      0.71750282    -1.37855414    -1.03403554
Cl     2.39744058    -2.47999846    -1.80076669
H      0.65065899    -1.87517669    -0.09774925
H      0.03496439    -1.63930575    -1.80228051
H      1.16372805    -0.41691928    -1.05832775
O     -0.94493677     2.44238988    -0.70159315
H     -1.40236484     2.55624528    -1.52649485
H     -0.97893468     1.49717594    -0.45145053
O      1.08057178     3.27139524     0.78615149
H      0.26640283     3.16244536     0.26532792
H      1.83953270     3.21290388     0.21858789
O      0.63520363     0.59091496     1.77072697
H      0.88346851     1.51112139     1.68622884
H      0.09362428     0.30136398     1.02221304
O      0.82786688    -1.02485318     3.93175688
H      0.67061207    -0.38445897     3.22110853
H      1.65591343    -1.46453130     3.78634891
O     -2.23092477     0.62969120    -2.52985840
H     -2.59923753    -0.03427196    -3.09751859
H     -1.77473256     0.24373334    -1.75341825
