22
C-O distance = 2.62369870 Angstrom
O     -1.40239371     0.66090623    -0.28964556
H     -2.23464024     0.80882351     0.15980298
C      0.79146582    -0.27733483    -1.38073626
Cl     2.50340591    -0.84290340    -2.09502736
H      0.85691048    -0.46303141    -0.33226015
H      0.06764513    -0.87891113    -1.88469710
H      0.72840581     0.76063526    -1.61689006
O     -0.36311496     2.85705587    -0.94319958
H     -0.68378189     3.25765167    -1.73898725
H     -0.82469025     1.98330214    -0.71506813
O      1.59112933     3.09977188     0.88280764
H      0.86893106     3.15702044     0.23568380
H      2.38027946     2.75378146     0.48590534
O      0.20330354     0.52091152     1.84288350
H      0.70562229     1.33298114     1.86753260
H     -0.40846747     0.51398563     1.07779162
O      0.23987087    -1.78026116     3.28239281
H      0.18455643    -0.89904907     2.88263866
H      0.75496589    -2.35300184     2.72880928
O     -2.22764618    -1.56301392    -1.56717677
H     -2.03125579    -2.26567884    -0.95871871
H     -1.94183636    -0.70641379    -1.18489861
