22
C-O distance = 1.27500000 Angstrom
O      0.22498400    -0.92973798    -0.39605782
H     -0.49871049    -1.27436130    -0.93930254
C      1.31302237    -1.59441470    -0.39452156
Cl    -1.78508592    -1.94606730    -2.57693172
H      1.20877525    -2.61254374    -0.01318243
H      1.77501334    -1.69121384    -1.37888873
H      2.04407504    -1.10720051     0.24238952
O     -0.10459811     1.77976599    -1.33948959
H     -0.73930600     1.75874078    -2.06257680
H      0.12267412     0.89113962    -1.06352272
O      0.12033329     3.14621029     0.91246855
H     -0.04239658     2.77083987     0.02791851
H      0.87622588     3.71815366     0.91956596
O      0.27172654     0.59930437     2.09293012
H      0.17959703     1.52837547     1.86427368
H      0.05290786     0.03533174     1.35260299
O      1.34594801    -0.27949092     4.45183197
H      0.84864825     0.06236653     3.69621058
H      2.13323445    -0.71138547     4.14503045
O     -2.03377838     1.16960843    -3.24485083
H     -1.89419606     0.21412954    -3.24435078
H     -2.94175411     1.36129523    -3.04569879
