22
C-O distance = 1.42500000 Angstrom
O      0.01769960    -0.88583588    -0.31025893
H     -0.68067705    -1.25188795    -0.87101166
C      1.23611740    -1.61480407    -0.43145484
Cl    -1.77145430    -1.98274016    -2.68986954
H      1.10741252    -2.63751566    -0.10161095
H      1.58586497    -1.61699064    -1.45479117
H      1.95969824    -1.12450373     0.20061404
O     -0.24792047     1.78846250    -1.27155167
H     -0.82855712     1.77916173    -2.03805508
H     -0.06478014     0.89493511    -0.97452744
O      0.16313285     3.17330723     0.93410148
H     -0.08587208     2.79283474     0.07123402
H      0.94564211     3.70429402     0.86672810
O      0.37427499     0.63492389     2.14683671
H      0.28221716     1.56156485     1.90705095
H      0.06560942     0.06411813     1.44380793
O      1.42292896    -0.26356863     4.51659803
H      0.94454502     0.10810313     3.76322790
H      2.14862464    -0.78862936     4.20288254
O     -1.96848211     1.14107484    -3.35152550
H     -1.81005955     0.18928635    -3.30746729
H     -2.90176187     1.31205345    -3.35031350
