22
C-O distance = 2.77588867 Angstrom
O     -1.67023527     0.73696708    -0.19131559
H     -2.58641093     0.99027489    -0.07668176
C      0.80884683    -0.22083234    -0.99277059
Cl     2.65945754    -0.67448069    -1.28174618
H      0.65030641    -0.34421451     0.05555889
H      0.24537901    -0.90090820    -1.59490643
H      0.72016719     0.79565229    -1.30465676
O     -0.32403171     2.88034509    -0.63283532
H     -0.66425725     3.36128942    -1.37550911
H     -0.85045866     2.04727107    -0.44680301
O      2.33333371     3.33341803    -0.00644453
H      1.38404892     3.23652003    -0.15001314
H      2.78788385     2.52880835    -0.22602326
O     -0.62722577     0.24511074     2.11824406
H     -0.31921224     1.07205152     2.46776796
H     -1.08382811     0.37560933     1.24254661
O      0.72433507    -1.99715487     2.95281693
H      0.14796234    -1.25269208     2.73487107
H      1.47621952    -2.00914438     2.37329304
O     -2.11621667    -1.48799260    -1.62851273
H     -2.04028595    -2.21959812    -1.02814006
H     -1.94056983    -0.64418394    -1.16199752
