22
C-O distance = 1.87506424 Angstrom
O     -0.94988391    -0.32377103    -0.33696125
H     -1.56258762    -0.77932211     0.23588095
C      0.23534561    -1.55516033    -1.10817931
Cl     1.85589189    -3.33752516    -2.49728013
H      0.76823406    -1.89054009    -0.24785113
H     -0.45803835    -2.23013160    -1.55215661
H      0.73683870    -0.87118748    -1.75113317
O     -0.81805096     2.38769813    -0.80890972
H     -1.25994873     2.47483159    -1.64682463
H     -0.85684994     1.46525628    -0.53060795
O      0.85227825     3.38594789     1.01794226
H      0.18656995     3.22777810     0.33172595
H      1.69400990     3.60980801     0.64247749
O      0.61031609     0.72183728     1.95869863
H      0.75692599     1.66519659     1.85912797
H      0.15775145     0.35941701     1.19906284
O      1.09185218    -0.93094062     4.09842566
H      0.85327518    -0.27952848     3.42728057
H      1.83271410    -1.44514375     3.80280439
O     -2.03195135     0.62428160    -2.76530284
H     -1.69222625     0.17365837    -3.52828353
H     -1.76919903     0.19145464    -1.94673038
