22
C-O distance = 2.47517344 Angstrom
O     -1.30305683     0.55684774    -0.42419718
H     -2.13099042     0.70444406     0.03725829
C      0.76939062    -0.29852999    -1.47289832
Cl     2.44941202    -0.88677029    -2.28998161
H      0.91154048    -0.47936375    -0.43266767
H      0.02852155    -0.90831769    -1.93593113
H      0.70923985     0.73394044    -1.72745258
O     -0.32482892     2.83834126    -0.89654826
H     -0.72895313     3.35091006    -1.58229082
H     -0.75880078     1.93091106    -0.75079924
O      1.53267943     2.95925691     1.01475666
H      0.84562133     3.07834065     0.33782152
H      2.34490936     2.66784150     0.61873656
O      0.22333954     0.47619460     1.80928639
H      0.69945373     1.30582602     1.82503723
H     -0.35292409     0.42846826     1.02338687
O      0.41128952    -1.56002277     3.59598641
H      0.26328521    -0.76997558     3.05451426
H      1.01283953    -2.14001827     3.14581477
O     -2.38036564    -1.48235521    -1.81884201
H     -2.23583942    -2.24362700    -1.26983167
H     -1.98649310    -0.69099911    -1.40128962
