22
C-O distance = 1.95001824 Angstrom
O     -0.97345015    -0.27882258    -0.33339946
H     -1.60413141    -0.71995255     0.23181868
C      0.27341597    -1.56885782    -1.09740541
Cl     1.89814137    -3.28002542    -2.31820987
H      0.75223478    -1.87722393    -0.19826696
H     -0.45112318    -2.21012131    -1.53789475
H      0.76547779    -0.85277886    -1.70977608
O     -0.85516994     2.41176651    -0.77700192
H     -1.30049274     2.51160456    -1.61126171
H     -0.89681364     1.48334767    -0.50936713
O      0.86717661     3.38362827     1.01345844
H      0.18013216     3.23045331     0.34677186
H      1.70559422     3.56975689     0.61065816
O      0.60482346     0.69792161     1.92545626
H      0.76158856     1.64034680     1.83950104
H      0.12997608     0.35404995     1.16849917
O      1.11328776    -0.95146618     4.05514006
H      0.86060717    -0.30322610     3.38538025
H      1.84518557    -1.46916889     3.74356771
O     -2.05101249     0.62171011    -2.74513659
H     -1.69720004     0.17472084    -3.50363769
H     -1.76637856     0.21119292    -1.91924371
