22
C-O distance = 2.99815352 Angstrom
O     -2.65656416     0.07147671    -0.07280864
H     -3.60798354     0.16704653    -0.05169605
C      0.28626417    -0.49148939    -0.18122958
Cl     2.18269210    -0.16446747    -0.29110679
H     -0.10524310     0.24946281     0.48034293
H      0.20565940    -1.48080395     0.22008898
H     -0.09433480    -0.43376858    -1.17785697
O      0.41627537     3.60761799    -0.20073767
H     -0.34719131     4.17172353    -0.17028995
H      0.20573533     2.77414480    -0.60858655
O      3.37038024     3.71348128    -0.32451813
H      2.43161810     3.78744361    -0.19648603
H      3.59614595     2.79731332    -0.41578086
O     -1.79059399     1.58766000     1.81134359
H     -1.21320038     2.24662860     1.45419387
H     -2.11724480     0.99522860     1.06464601
O      1.54145584    -2.95726754     2.17167710
H      0.79235453    -2.45875772     2.47407948
H      2.13985622    -2.40919618     1.68295573
O     -2.01885343    -1.75217159    -1.77505552
H     -1.88060319    -2.55684028    -1.31069593
H     -2.27192042    -1.02189013    -1.10859820
