22
C-O distance = 1.65000000 Angstrom
O     -0.71737408    -0.63278082     0.27587350
H     -1.30568654    -1.36599366     0.42397310
C      0.48101014    -1.07945225    -0.76665224
Cl    -0.65584977    -2.11969657    -4.24282787
H      1.20101499    -1.59388958    -0.15812254
H      0.04793895    -1.68330562    -1.54543120
H      0.83480583    -0.13349295    -1.12468156
O     -0.77859297     1.94094949    -0.86063163
H     -0.91471647     1.69337855    -1.78739111
H     -0.99718225     1.18162743    -0.32112758
O      0.73390313     3.29834223     0.80936990
H      0.15779739     2.95605210     0.10133079
H      1.51477783     3.71298930     0.46983076
O      0.72683742     0.84643538     2.20953973
H      0.79290038     1.75540109     1.90352100
H      0.17159455     0.32254542     1.63056125
O      1.04425156    -0.77928648     4.35904089
H      0.88083361    -0.08003160     3.71127898
H      1.86964318    -1.20632159     4.16821010
O     -1.55908288     0.63018665    -3.06459763
H     -1.11072893    -0.00305591    -3.63852265
H     -2.36598395     0.21908852    -2.77715658
