22
C-O distance = 2.02502082 Angstrom
O     -0.99091657    -0.23645279    -0.32382916
H     -1.64503623    -0.65405522     0.23346419
C      0.31709889    -1.58151447    -1.08580944
Cl     1.90112228    -3.18975766    -2.17582667
H      0.70368407    -1.88406409    -0.14311336
H     -0.44408786    -2.15523745    -1.55275657
H      0.81196393    -0.81471843    -1.62806762
O     -0.88227134     2.42515735    -0.74897375
H     -1.34957425     2.54975730    -1.56696861
H     -0.92653074     1.48783744    -0.49825150
O      0.88652511     3.38005743     0.99986035
H      0.17541260     3.22583459     0.35827132
H      1.71622624     3.52369342     0.56257213
O      0.60803526     0.66632807     1.88361147
H      0.77462618     1.60741636     1.81237540
H      0.10822992     0.34176831     1.13067589
O      1.11239402    -0.97174328     4.01330844
H      0.85199497    -0.33295246     3.33637512
H      1.87804674    -1.45223856     3.72411181
O     -2.08843338     0.59801968    -2.72188896
H     -1.67569506     0.18896097    -3.47200088
H     -1.77647990     0.21760308    -1.88801828
