22
C-O distance = 2.25389408 Angstrom
O     -1.05646575    -0.08376780    -0.26641108
H     -1.75347091    -0.39132054     0.31475755
C      0.75230912    -0.81410093    -1.39556363
Cl     2.43316647    -1.34341284    -2.43828974
H      0.84916472    -1.42963480    -0.53544611
H     -0.00113723    -1.07509245    -2.09749550
H      0.92558807     0.22446406    -1.25863424
O     -0.70566938     2.41917036    -0.74340991
H     -1.03675097     2.64328927    -1.60292621
H     -0.91320075     1.47209497    -0.50827148
O      1.29190235     3.20050058     0.85587993
H      0.52498938     3.08217798     0.27121227
H      2.09052863     2.92932371     0.41910493
O      0.54519293     0.57923950     1.91257218
H      0.81308944     1.49287270     1.82980830
H      0.01796523     0.29439515     1.15132167
O      0.79368112    -1.02875133     4.09536596
H      0.63530284    -0.37164256     3.40142237
H      1.35595724    -1.71309321     3.75447625
O     -2.41471593    -0.04535939    -2.62989127
H     -2.92805648    -0.83608268    -2.73554291
H     -1.92343188    -0.04517772    -1.78466915
