22
C-O distance = 2.09944996 Angstrom
O     -0.98843816    -0.21053144    -0.29550878
H     -1.66866408    -0.60027355     0.25119514
C      0.38376046    -1.56602977    -1.12459582
Cl     1.89369859    -2.98355510    -2.15936002
H      0.59794234    -1.95798374    -0.16158837
H     -0.41101486    -1.96587889    -1.70076325
H      0.90082819    -0.70156655    -1.45711221
O     -0.85386963     2.39528453    -0.74900506
H     -1.36874821     2.54380036    -1.53230142
H     -0.91212467     1.45190202    -0.49522339
O      0.91374941     3.41413356     0.95106778
H      0.20939263     3.21515037     0.31163809
H      1.75468932     3.50737374     0.52208138
O      0.59164207     0.69289449     1.89622700
H      0.75206830     1.63329826     1.81187483
H      0.08392049     0.35458885     1.15114792
O      1.11459381    -0.94962393     4.01494059
H      0.85894535    -0.28750192     3.35827014
H      1.73923410    -1.55189086     3.62986070
O     -2.14030634     0.50602992    -2.67538957
H     -1.70601205     0.09376044    -3.41200941
H     -1.78418534     0.19078312    -1.82828664
