7
frame 0 | Written by MDAnalysis XYZWriter (release 2.10.0)
       O    -3.19750    0.00000   -0.39551
       H    -3.76472   -0.00000    0.39502
       C    -0.22511   -0.00000    0.01053
      Cl     1.62201    0.00000    0.61864
       H    -0.68030    0.88417    0.39987
       H    -0.68030   -0.88417    0.39987
       H    -0.16573   -0.00000   -1.05767
7
frame 0 | Written by MDAnalysis XYZWriter (release 2.10.0)
       O    -3.14415    0.00000   -0.44888
       H    -3.54154   -0.00000    0.43990
       C    -0.27829   -0.00000    0.02811
      Cl     1.59347    0.00000    0.61145
       H    -0.71557    0.88728    0.42815
       H    -0.71557   -0.88728    0.42815
       H    -0.23550   -0.00000   -1.03932
7
frame 0 | Written by MDAnalysis XYZWriter (release 2.10.0)
       O    -3.05323    0.00000   -0.44751
       H    -3.45489   -0.00000    0.43900
       C    -0.28683   -0.00000    0.04859
      Cl     1.62549    0.00000    0.56535
       H    -0.69423    0.89107    0.46888
       H    -0.69423   -0.89107    0.46888
       H    -0.27827   -0.00000   -1.01853
7
frame 0 | Written by MDAnalysis XYZWriter (release 2.10.0)
       O    -2.96188    0.00000   -0.43801
       H    -3.38127   -0.00000    0.43938
       C    -0.29278   -0.00000    0.06339
      Cl     1.66079    0.00000    0.52954
       H    -0.66927    0.89518    0.50086
       H    -0.66927   -0.89518    0.50086
       H    -0.30367   -0.00000   -1.00256
7
frame 0 | Written by MDAnalysis XYZWriter (release 2.10.0)
       O    -2.87612    0.00000   -0.42626
       H    -3.30810   -0.00000    0.44384
       C    -0.30302    0.00000    0.07287
      Cl     1.70004    0.00000    0.50534
       H    -0.64361    0.90024    0.52627
       H    -0.64361   -0.90024    0.52627
       H    -0.31575   -0.00000   -0.99175
7
frame 0 | Written by MDAnalysis XYZWriter (release 2.10.0)
       O    -2.80127    0.00000   -0.41438
       H    -3.23466   -0.00000    0.45338
       C    -0.32300    0.00000    0.07585
      Cl     1.75260   -0.00000    0.49549
       H    -0.61489    0.90714    0.54582
       H    -0.61489   -0.90714    0.54582
       H    -0.31146   -0.00000   -0.98730
7
frame 0 | Written by MDAnalysis XYZWriter (release 2.10.0)
       O    -2.75005    0.00000   -0.40658
       H    -3.16261   -0.00000    0.46856
       C    -0.36569    0.00000    0.07030
      Cl     1.84703   -0.00000    0.50118
       H    -0.57416    0.91610    0.56353
       H    -0.57416   -0.91610    0.56353
       H    -0.28826   -0.00000   -0.98842
7
frame 0 | Written by MDAnalysis XYZWriter (release 2.10.0)
       O    -2.71481    0.00000   -0.39883
       H    -3.09742   -0.00000    0.48648
       C    -0.42264    0.00000    0.05593
      Cl     1.98936   -0.00000    0.52784
       H    -0.52763    0.92046    0.57327
       H    -0.52763   -0.92046    0.57327
       H    -0.25326   -0.00000   -0.99146
7
frame 0 | Written by MDAnalysis XYZWriter (release 2.10.0)
       O    -2.66740    0.00000   -0.38617
       H    -3.03417   -0.00000    0.50340
       C    -0.46654    0.00000    0.04190
      Cl     2.12083   -0.00000    0.56212
       H    -0.49003    0.91960    0.57294
       H    -0.49003   -0.91960    0.57294
       H    -0.22807   -0.00000   -0.99281
7
frame 0 | Written by MDAnalysis XYZWriter (release 2.10.0)
       O    -2.60587    0.00000   -0.36981
       H    -2.96890   -0.00000    0.51959
       C    -0.49600    0.00000    0.02977
      Cl     2.22660   -0.00000    0.59626
       H    -0.46116    0.91677    0.56764
       H    -0.46116   -0.91677    0.56764
       H    -0.21415    0.00000   -0.99516
7
frame 0 | Written by MDAnalysis XYZWriter (release 2.10.0)
       O    -2.53762    0.00000   -0.35199
       H    -2.90262   -0.00000    0.53518
       C    -0.51840    0.00000    0.01690
      Cl     2.31856   -0.00000    0.63727
       H    -0.43533    0.91308    0.55856
       H    -0.43533   -0.91308    0.55856
       H    -0.20626    0.00000   -1.00053
7
frame 0 | Written by MDAnalysis XYZWriter (release 2.10.0)
       O    -2.46419   -0.00041   -0.33814
       H    -2.83698    0.00071    0.54444
       C    -0.53638   -0.00050    0.00378
      Cl     2.39619    0.00295    0.70468
       H    -0.40990    0.90836    0.54706
       H    -0.41078   -0.90854    0.54917
       H    -0.19760   -0.00300   -1.00658
7
frame 0 | Written by MDAnalysis XYZWriter (release 2.10.0)
       O    -2.38681   -0.00087   -0.32451
       H    -2.77131    0.00066    0.55167
       C    -0.55038   -0.00071   -0.01006
      Cl     2.46417    0.00167    0.78458
       H    -0.38615    0.90346    0.53448
       H    -0.38578   -0.90437    0.53475
       H    -0.19156    0.00046   -1.01507
7
frame 0 | Written by MDAnalysis XYZWriter (release 2.10.0)
       O    -2.30879   -0.00098   -0.31041
       H    -2.70474   -0.00178    0.55918
       C    -0.56293    0.00086   -0.02889
      Cl     2.52218    0.00099    0.88302
       H    -0.35915    0.89921    0.51557
       H    -0.35671   -0.89721    0.51454
       H    -0.18767    0.00307   -1.02964
7
frame 0 | Written by MDAnalysis XYZWriter (release 2.10.0)
       O    -2.25493    0.00125   -0.23187
       H    -2.60581   -0.00377    0.65515
       C    -0.58709    0.00134   -0.09221
      Cl     2.55388    0.00151    1.04930
       H    -0.30574    0.89139    0.43419
       H    -0.30552   -0.88938    0.43301
       H    -0.26554    0.00203   -1.11402
7
frame 0 | Written by MDAnalysis XYZWriter (release 2.10.0)
       O    -2.18345    0.00258   -0.04867
       H    -2.36585   -0.00534    0.88622
       C    -0.61681    0.00161   -0.24546
      Cl     2.47776    0.00152    1.45189
       H    -0.19947    0.88055    0.20974
       H    -0.20058   -0.87846    0.20878
       H    -0.49354    0.00192   -1.31315
7
frame 0 | Written by MDAnalysis XYZWriter (release 2.10.0)
       O    -1.47180   -0.00060    0.64466
       H    -0.84746   -0.00156    1.38025
       C    -0.69870    0.00182   -0.62230
      Cl     1.20202   -0.00261    2.51414
       H    -0.07587    0.88317   -0.68414
       H    -0.07487   -0.87861   -0.68690
       H    -1.42727    0.00265   -1.41997
7
frame 0 | Written by MDAnalysis XYZWriter (release 2.10.0)
       O    -1.38570   -0.00052    0.58900
       H    -0.77653   -0.00148    1.33706
       C    -0.70727    0.00181   -0.62358
      Cl     1.17122   -0.00264    2.56689
       H    -0.07625    0.87789   -0.74276
       H    -0.07533   -0.87321   -0.74561
       H    -1.44539    0.00271   -1.41701
7
frame 0 | Written by MDAnalysis XYZWriter (release 2.10.0)
       O    -1.29375   -0.00041    0.53425
       H    -0.69798   -0.00138    1.29344
       C    -0.71531    0.00180   -0.62409
      Cl     1.13036   -0.00272    2.62312
       H    -0.07953    0.87293   -0.80733
       H    -0.07865   -0.86807   -0.81021
       H    -1.46788    0.00272   -1.41053
7
frame 0 | Written by MDAnalysis XYZWriter (release 2.10.0)
       O    -1.19396   -0.00028    0.48042
       H    -0.61012   -0.00127    1.25034
       C    -0.72181    0.00180   -0.62279
      Cl     1.07515   -0.00283    2.67971
       H    -0.08606    0.86921   -0.87862
       H    -0.08520   -0.86413   -0.88151
       H    -1.49609    0.00270   -1.39840

