88
C      7.887000     4.758000     7.760000
C      9.151000     4.093000     7.220000
C      9.108000     2.574000     7.426000
C     10.370000     1.893000     6.879000
O     10.492000     2.077000     5.468000
C      9.702000     1.452000     4.488000
C      8.795000     0.420000     4.785000
C      8.003000    -0.160000     3.777000
C      7.008000    -1.223000     4.167000
C      8.151000     0.279000     2.435000
C      9.067000     1.308000     2.153000
C      9.834000     1.881000     3.167000
C      7.351000    -0.282000     1.319000
O      7.106000     0.430000     0.306000
O      6.919000    -1.613000     1.351000
C      5.749000    -2.079000     0.736000
C      4.645000    -1.243000     0.528000
C      3.479000    -1.747000    -0.044000
C      3.382000    -3.096000    -0.427000
C      2.092000    -3.547000    -1.014000
N      1.861000    -4.741000    -1.597000
N      0.596000    -4.734000    -1.988000
C      0.098000    -3.534000    -1.632000
O      1.011000    -2.805000    -1.037000
C     -1.284000    -3.084000    -1.884000
C     -1.679000    -1.796000    -1.491000
C     -2.976000    -1.348000    -1.748000
C     -3.890000    -2.168000    -2.414000
O     -5.163000    -1.662000    -2.690000
C     -5.642000    -1.453000    -3.988000
O     -4.946000    -1.804000    -4.981000
C     -6.959000    -0.805000    -4.210000
C     -7.520000     0.125000    -3.294000
C     -6.810000     0.534000    -2.029000
C     -8.768000     0.708000    -3.580000
C     -9.453000     0.405000    -4.769000
O    -10.682000     0.995000    -5.102000
C    -11.333000     1.995000    -4.322000
C    -12.597000     2.460000    -5.041000
C    -13.299000     3.572000    -4.253000
C    -14.556000     4.050000    -4.973000
C     -8.891000    -0.506000    -5.664000
C     -7.660000    -1.103000    -5.391000
C     -3.515000    -3.475000    -2.778000
Cl    -4.669000    -4.580000    -3.511000
C     -2.214000    -3.926000    -2.517000
C      4.499000    -3.951000    -0.214000
C      4.476000    -5.412000    -0.582000
C      5.667000    -3.425000     0.372000
H      7.957000     5.856000     7.618000
H      7.770000     4.545000     8.845000
H      6.994000     4.386000     7.214000
H      9.242000     4.327000     6.137000
H     10.033000     4.516000     7.747000
H      9.032000     2.353000     8.514000
H      8.206000     2.156000     6.932000
H     11.261000     2.336000     7.372000
H     10.372000     0.812000     7.133000
H      8.691000     0.066000     5.801000
H      7.371000    -2.217000     3.836000
H      6.859000    -1.260000     5.267000
H      6.019000    -1.010000     3.712000
H      9.199000     1.668000     1.140000
H     10.532000     2.672000     2.924000
H      4.667000    -0.207000     0.838000
H      2.643000    -1.071000    -0.184000
H     -0.984000    -1.132000    -0.992000
H     -3.268000    -0.350000    -1.447000
H     -6.842000    -0.298000    -1.295000
H     -5.757000     0.807000    -2.250000
H     -7.286000     1.422000    -1.560000
H     -9.196000     1.410000    -2.876000
H    -10.651000     2.862000    -4.186000
H    -11.604000     1.573000    -3.329000
H    -13.286000     1.595000    -5.163000
H    -12.321000     2.837000    -6.050000
H    -12.608000     4.435000    -4.129000
H    -13.581000     3.199000    -3.244000
H    -14.297000     4.448000    -5.977000
H    -15.036000     4.859000    -4.383000
H    -15.280000     3.214000    -5.086000
H     -9.410000    -0.748000    -6.583000
H     -7.257000    -1.806000    -6.109000
H     -1.934000    -4.931000    -2.806000
H      3.633000    -5.920000    -0.069000
H      5.411000    -5.929000    -0.278000
H      4.375000    -5.521000    -1.683000
H      6.523000    -4.064000     0.552000
