37
C-O distance = 1.65000000 Angstrom
O     -1.10125166     0.07770979    -1.25055214
H     -1.56638380    -0.06704710    -2.06770414
C      0.51958861    -0.13264593    -1.47666560
Cl     3.67418748    -0.32502718    -2.12271434
H      0.89814297    -0.06990172    -0.47836150
H      0.62923605    -1.10530040    -1.90953009
H      0.83028086     0.66933369    -2.11461722
O      0.37468959     4.21239046    -0.00644522
H      0.73325087     4.25207807    -0.88545160
H     -0.30771376     3.54280757     0.09598370
O      3.14499211     2.69700997    -1.08122795
H      2.84180348     2.50159653    -0.19876573
H      3.36477957     1.88165455    -1.54810011
O     -1.33798582     2.07715656     0.48753281
H     -2.15400952     2.06894340     0.97097400
H     -1.28648149     1.34967290    -0.15806594
O      1.02638929    -1.35603392     1.97617863
H      1.05909170    -0.42844474     2.23548116
H      0.12949071    -1.65460003     1.82284635
O     -1.46860616    -2.11060006     0.69981991
H     -1.06179024    -2.84513066     0.22725544
H     -1.48324734    -1.34566204     0.12630915
O      2.41238624     3.57384941     1.64934437
H      3.20695507     4.08588802     1.54779728
H      1.68812574     3.95782206     1.13870615
O      4.47047226     4.95161924    -0.46180074
H      5.40523407     4.79419899    -0.42471486
H      4.00478610     4.20245004    -0.85420950
O      0.84172495     1.37624603     2.34594050
H      1.54429293     2.02879488     2.32867685
H      0.08190469     1.67603062     1.85110854
O      2.34459927    -2.65410761    -0.03357272
H      2.89526959    -2.11373457    -0.60125157
H      2.06999553    -2.18854613     0.76886841
O      0.08381480    -3.72782328    -0.89723864
H      0.11800671    -4.59852414    -1.26744239
H      0.96249083    -3.38828494    -0.62893650
