37
C-O distance = 1.50000000 Angstrom
O     -1.33310396     0.04055746    -1.36597551
H     -1.96724097    -0.04591220    -2.06774069
C      0.06671819    -0.25969991    -1.81357293
Cl     3.38816823    -0.21371265    -2.65452270
H      0.66381142    -0.23668123    -0.92465261
H      0.09881961    -1.24379735    -2.24746100
H      0.39222342     0.49118048    -2.51048118
O      0.51723251     4.14481609    -0.36101732
H      1.22928312     3.62980581    -0.74731116
H     -0.23033326     3.58663979    -0.15408525
O      2.62501402     2.22616832    -0.70762848
H      2.29747445     1.79596476     0.08535699
H      2.89671567     1.59214434    -1.38347007
O     -1.30107472     2.01465449     0.48310909
H     -2.03400809     2.00969301     1.08521934
H     -1.36844821     1.32345952    -0.19244297
O      1.43684278    -1.03346424     1.67996691
H      1.52879873    -0.09893106     1.87726371
H      0.51943277    -1.31173178     1.63227515
O     -1.16126700    -1.91108642     0.86143526
H     -0.82052726    -2.70099520     0.42272441
H     -1.42750560    -1.26565187     0.21220903
O      2.06578269     4.36919167     2.01343206
H      2.97580976     4.42671771     1.71205176
H      1.46978994     4.60375002     1.29754756
O      4.31765018     4.03639909     0.42446635
H      5.24465572     3.85008685     0.36343002
H      3.78613736     3.42807151    -0.10886534
O      1.25530322     1.74529328     1.75534055
H      1.60756535     2.58294337     2.08591845
H      0.36613984     1.85523598     1.41456344
O      2.43542274    -2.48121518    -0.40834887
H      2.86460273    -1.97685721    -1.10180640
H      2.29916480    -1.95623346     0.39172743
O      0.16289792    -3.77209663    -0.64544747
H      0.22100025    -4.71362600    -0.73003411
H      1.04545568    -3.34249347    -0.63986885
