37
C-O distance = 1.72504300 Angstrom
O     -1.23626511     0.13233108    -1.05756276
H     -1.71919454    -0.04419016    -1.85841746
C      0.45538155    -0.05482103    -1.33877263
Cl     3.50487894    -0.18223587    -2.04414329
H      0.85815136     0.13430588    -0.36721054
H      0.55123447    -1.06863059    -1.66412677
H      0.69094645     0.68549683    -2.07278510
O     -0.05480338     4.23157659     0.15818243
H      0.00322305     4.45684697    -0.76091503
H     -0.70714368     3.53980945     0.33566961
O      3.83700656     2.79019039    -0.74091197
H      3.26391748     2.77647491     0.02121341
H      3.84999660     1.94511833    -1.19946645
O     -1.64522790     2.08119981     0.63687486
H     -2.40138864     1.97649985     1.19954007
H     -1.55156956     1.35399531    -0.01579285
O      0.98075131    -1.51706817     2.03806324
H      0.99857361    -0.57275807     2.21956972
H      0.10127661    -1.81636762     1.79621026
O     -1.43266759    -2.20474920     0.66279535
H     -1.02317523    -2.90063620     0.13747562
H     -1.50160506    -1.40068180     0.14982393
O      2.16184703     3.55679698     1.51456647
H      2.78119389     4.20119837     1.83219377
H      1.41357098     3.94198056     1.03235083
O      5.36757307     5.01821520    -1.04409869
H      6.21518726     4.74800164    -1.37461810
H      4.78137720     4.25059047    -0.97076967
O      0.75752382     1.24454202     2.18057298
H      1.44311103     1.91181846     2.11402558
H     -0.05390803     1.55174483     1.78463115
O      2.38051416    -2.61175754    -0.03373765
H      2.89248908    -2.01004446    -0.57660388
H      2.08361840    -2.21145198     0.79626683
O      0.19189709    -3.73991191    -0.94495588
H      0.27245319    -4.58959390    -1.35573034
H      1.05700643    -3.38010530    -0.65556639
