37
C-O distance = 2.85130227 Angstrom
O     -2.07280431     0.11084200     0.24782819
H     -3.00944887     0.06541025     0.09359949
C      0.64061406     0.47527920    -0.54870864
Cl     2.26636410    -0.12245774    -1.39807544
H      0.92781898     0.77892557     0.43855996
H     -0.01195635    -0.36480145    -0.57417731
H      0.29616401     1.28895856    -1.15150150
O     -0.77450474     3.77356400    -0.54659530
H     -1.24002016     3.64658003    -1.36104935
H     -1.16009581     3.23250144     0.23396210
O      3.96982494     2.96666461    -0.79555143
H      3.19786614     3.49200718    -0.54633747
H      3.72510717     2.08276795    -1.04117308
O     -1.55514936     2.35454785     1.34165064
H     -2.16471689     2.66395852     2.00403593
H     -1.83037486     0.96435894     0.72794175
O      0.63134031    -2.46920480     1.62753813
H      0.11534966    -1.76038432     1.99332551
H      0.24688832    -2.80385565     0.82163965
O     -1.90346400    -2.54416646    -0.64260972
H     -1.09324724    -2.89535062    -0.99950161
H     -1.81957421    -1.64686566    -0.31439979
O      1.72367420     4.34915637    -0.10161933
H      1.76891125     5.22264735     0.26356094
H      0.80246437     4.11495217    -0.35283630
O      6.67677631     3.38289569    -0.74011370
H      6.83296963     4.31610326    -0.79902844
H      5.72844158     3.19651411    -0.71329536
O      0.98835834     2.20493353     2.21260725
H      1.49101426     2.84050735     1.71502179
H      0.04410784     2.25655507     1.98353700
O      3.14504199    -3.22946668     0.72039745
H      3.65151720    -2.48528024     0.41555483
H      2.42556913    -2.93681141     1.28788481
O      0.91454178    -3.32376162    -1.18884427
H      1.34242530    -2.56220279    -1.57022129
H      1.57550764    -3.85730915    -0.75183002
