37
C-O distance = 2.17505284 Angstrom
O     -1.41568520     0.18442132    -0.87207419
H     -2.12063095     0.12813767    -1.50607549
C      0.68665998     0.03519835    -1.40941217
Cl     2.75919487    -0.03481973    -1.94215792
H      0.80759169     0.31670455    -0.38995092
H      0.45182719    -0.97953057    -1.62533087
H      0.41255369     0.78330568    -2.11064954
O     -0.38778525     4.15656222     0.20337718
H     -0.60334622     4.52393799    -0.64248587
H     -0.94780300     3.34889345     0.43930086
O      4.07279942     2.97594538    -0.57610884
H      3.36451115     3.23485380     0.02247207
H      3.91638393     2.11974855    -0.96117525
O     -1.62036652     2.03317843     0.77186030
H     -2.34275660     2.03292701     1.39122680
H     -1.55204876     0.94818528    -0.19149835
O      0.92803032    -1.50932050     2.07473308
H      0.93965640    -0.54504291     2.13171003
H      0.05841525    -1.83119270     1.82199399
O     -1.38260270    -2.26463078     0.61668989
H     -0.96508251    -2.91373572     0.04513593
H     -1.47571790    -1.42474133     0.16258641
O      2.02190145     3.74614640     1.13239143
H      2.26671381     4.32180578     1.84490243
H      1.14708708     3.97135582     0.74815339
O      6.31557920     4.49562018    -0.97251662
H      6.20103112     4.78265816    -1.86968624
H      5.58226011     3.91856251    -0.72072281
O      0.70182652     1.20972404     1.85495838
H      1.34939771     1.90152654     1.74226000
H     -0.17952424     1.49528816     1.54859997
O      2.43098604    -2.70091289     0.21776840
H      2.94659962    -2.07279414    -0.27712793
H      2.02255722    -2.29389552     1.00494397
O      0.32525345    -3.70507284    -1.05341245
H      0.43838506    -4.50687809    -1.54469980
H      1.15050908    -3.40576689    -0.62652594
