37
C-O distance = 2.62472312 Angstrom
O     -2.00239018     0.16719531    -0.58699534
H     -2.84961332     0.20058422    -1.01398834
C      0.47067043     0.09863031    -1.46360331
Cl     2.24844944     0.00372734    -2.23666236
H      0.63165767     0.24593339    -0.41706255
H      0.03062356    -0.84294307    -1.69704730
H      0.01119840     0.92953117    -1.95050313
O     -0.49080745     3.90366247    -0.11105614
H     -0.78154276     4.03487533    -1.00274694
H     -1.03611215     3.20053235     0.38499419
O      4.08987215     2.89124072    -0.78937527
H      3.35386103     3.20534336    -0.24893324
H      3.87280447     2.07869802    -1.23100126
O     -1.67621555     2.05329160     1.06812723
H     -2.30690848     2.18929695     1.76738966
H     -1.89729005     0.90129882     0.10059698
O      0.90042787    -1.45444618     2.07215485
H      0.91187908    -0.48840727     2.12999565
H      0.05472935    -1.78186705     1.74767687
O     -1.29453753    -2.28917908     0.53050900
H     -0.79613299    -2.81687587    -0.09576967
H     -1.60449573    -1.46502775     0.14177961
O      1.97547462     3.74611174     0.72719203
H      2.15025862     4.36452492     1.42464422
H      1.07195201     3.85332987     0.35222337
O      6.59304277     4.02139393    -0.63407035
H      6.55650905     4.67495621    -1.32083416
H      5.75896828     3.53659265    -0.59837136
O      0.71586360     1.26006636     1.88581531
H      1.35603353     1.90651174     1.60536163
H     -0.19720387     1.53077082     1.65369138
O      2.61296170    -2.72481750     0.53403105
H      3.29096586    -2.14649902     0.20780191
H      2.06366909    -2.28759860     1.21947250
O      0.65886104    -3.47462325    -1.18707039
H      0.91755637    -3.35783196    -2.09149967
H      1.40002289    -3.31322960    -0.57962152
