37
C-O distance = 1.79999398 Angstrom
O     -1.29976214     0.10923358    -1.05660864
H     -1.77337258    -0.06824957    -1.86334980
C      0.46496572    -0.07508447    -1.35949602
Cl     3.43667661    -0.14450381    -2.02463762
H      0.83777344     0.10583826    -0.37555298
H      0.53187552    -1.08608961    -1.69756191
H      0.65821479     0.68603574    -2.08207549
O     -0.21336598     4.24958259     0.23895100
H     -0.21012027     4.51363371    -0.67165280
H     -0.82842084     3.52090636     0.40982928
O      4.00499999     2.78479963    -0.61810424
H      3.32071554     2.82362779     0.04567818
H      4.00232024     1.94586852    -1.08495831
O     -1.72352219     2.03797382     0.63712343
H     -2.46682614     1.89552561     1.20868500
H     -1.61311517     1.32113020    -0.02898060
O      1.03439391    -1.47422128     2.04460538
H      1.04493752    -0.53579771     2.25170305
H      0.15403034    -1.76998891     1.79725440
O     -1.35528369    -2.17384613     0.68908888
H     -0.98827067    -2.88155044     0.15031062
H     -1.48033240    -1.38619302     0.15901563
O      2.10313692     3.59030194     1.44125154
H      2.70929728     4.24325294     1.76736782
H      1.31913317     3.96618868     1.01243699
O      5.62713662     4.93773955    -1.05172627
H      6.28807549     4.67937486    -1.68181954
H      5.03101621     4.19596849    -0.87326583
O      0.70842972     1.29043671     2.23238026
H      1.38133299     1.96371404     2.11725357
H     -0.10586914     1.54516507     1.80628492
O      2.37034341    -2.61898834    -0.03706839
H      2.88990971    -2.02556827    -0.58090266
H      2.09584665    -2.21143257     0.79737884
O      0.18963618    -3.72665686    -0.99737212
H      0.26963651    -4.57660645    -1.40799632
H      1.05194926    -3.37752578    -0.68740769
