37
C-O distance = 1.27500000 Angstrom
O     -1.25597713     0.02507682    -1.46923030
H     -1.95408744    -0.08596498    -2.10025866
C     -0.06612948    -0.21248643    -1.86095888
Cl     3.43027658    -0.15543997    -2.65075412
H      0.61800111    -0.13814186    -1.03162196
H      0.07694162    -1.21325791    -2.25828047
H      0.30207432     0.47826210    -2.61407333
O      0.52461462     4.17136154    -0.35354857
H      1.23540626     3.66053229    -0.74863487
H     -0.22839762     3.61460122    -0.16704726
O      2.61664317     2.25324193    -0.72058156
H      2.28594128     1.81111989     0.06401989
H      2.88682744     1.62480403    -1.40401790
O     -1.30987254     1.99508539     0.44723273
H     -2.04607634     1.96445463     1.04500917
H     -1.35272337     1.30988925    -0.23078804
O      1.45717515    -1.03691790     1.71571351
H      1.53859132    -0.09532633     1.88266497
H      0.54325418    -1.32133720     1.66233908
O     -1.15112494    -1.93543179     0.86303636
H     -0.79149387    -2.72717114     0.43946946
H     -1.38761701    -1.29232360     0.20276383
O      2.08344223     4.35312057     2.01983857
H      2.99384865     4.39800782     1.71586498
H      1.48772535     4.60537729     1.31001172
O      4.35130434     3.99345597     0.45362048
H      5.25832219     3.71935172     0.47096996
H      3.80784709     3.41518310    -0.10171194
O      1.24977727     1.74341503     1.74632303
H      1.60715108     2.57880204     2.07837872
H      0.36372249     1.85846725     1.40186039
O      2.41060244    -2.42628451    -0.44402044
H      2.82988955    -1.91252166    -1.13718102
H      2.29219741    -1.91587695     0.36758879
O      0.19171865    -3.79990132    -0.59520260
H      0.29248587    -4.74153000    -0.61215481
H      1.05501508    -3.33211706    -0.63591624
