37
C-O distance = 2.02576541 Angstrom
O     -1.36576133     0.18665518    -0.85375728
H     -1.92590351     0.07193665    -1.61643554
C      0.59966771    -0.01993529    -1.29888036
Cl     3.13912369    -0.07504311    -1.87323454
H      0.86249831     0.26592503    -0.30523352
H      0.54022596    -1.03985890    -1.59845728
H      0.56603463     0.73387549    -2.04382759
O     -0.41524180     4.16835047     0.21196829
H     -0.58973011     4.58521655    -0.62092495
H     -0.98305705     3.38805292     0.36119242
O      4.09612849     2.92562897    -0.60438954
H      3.37816284     3.13048662    -0.00471588
H      4.00217588     2.05714332    -0.99297064
O     -1.68600620     1.95272864     0.67605004
H     -2.41118347     1.89114416     1.28652642
H     -1.59554273     1.17683572    -0.02652231
O      0.94399773    -1.52968712     2.11054233
H      0.96531520    -0.57087658     2.18206868
H      0.07096747    -1.84068804     1.85628160
O     -1.40206148    -2.23950797     0.66517844
H     -0.98444432    -2.89039183     0.09357885
H     -1.51762757    -1.40958699     0.19543281
O      2.00789326     3.69463608     1.18117023
H      2.33506376     4.29600199     1.83727133
H      1.17007373     3.98784299     0.78495507
O      6.22585724     4.59488205    -0.97469158
H      6.18955435     4.76168916    -1.90817808
H      5.52439907     3.97432527    -0.73158746
O      0.72870987     1.21979038     1.88264702
H      1.37628717     1.91534140     1.77538036
H     -0.13405334     1.48761739     1.56053089
O      2.41226455    -2.65968037     0.14174520
H      2.93124304    -2.03676651    -0.36416548
H      2.06222002    -2.27311039     0.95937739
O      0.28154488    -3.63946891    -1.05714083
H      0.37031561    -4.42793229    -1.57372305
H      1.12864848    -3.35000100    -0.65891361
