37
C-O distance = 2.55029026 Angstrom
O     -1.85797342     0.08044618    -0.59138338
H     -2.64143159     0.10197189    -1.12663222
C      0.55482749    -0.00008590    -1.41350673
Cl     2.36948014    -0.02054621    -2.15088920
H      0.68395189     0.29662690    -0.39487272
H      0.22415886    -1.00620741    -1.53348270
H      0.04657635     0.71555488    -2.01756710
O     -0.41014529     4.07794829     0.00359498
H     -0.67748395     4.37627785    -0.85426090
H     -0.98834673     3.32024636     0.37128647
O      4.05281416     2.87160107    -0.69866155
H      3.33988494     3.18341248    -0.12675597
H      3.83193576     2.04970807    -1.12053801
O     -1.66093811     2.11479069     0.91266369
H     -2.32266120     2.24247483     1.58509800
H     -1.80196793     0.87960391     0.02144322
O      0.88091020    -1.48686623     2.12103452
H      0.85776351    -0.52283407     2.16602983
H      0.04681956    -1.85137278     1.80571352
O     -1.29777589    -2.38397551     0.59068099
H     -0.83931097    -2.93765590    -0.04257541
H     -1.56395909    -1.54516736     0.19972321
O      2.00052115     3.73120481     0.90123827
H      2.21216057     4.31252576     1.61966854
H      1.11607728     3.92208749     0.51168044
O      6.50407515     4.09018409    -0.76340347
H      6.42467346     4.64306535    -1.53035040
H      5.68815548     3.58860370    -0.63771309
O      0.67246130     1.24033583     1.86459800
H      1.32994801     1.90195939     1.66499847
H     -0.21813406     1.53653382     1.58720483
O      2.56907686    -2.57240992     0.38711772
H      3.08398186    -1.89411309    -0.03392172
H      2.05677888    -2.21754495     1.14180026
O      0.60870455    -3.55183227    -1.18416257
H      0.85977263    -3.67248126    -2.09028960
H      1.36528761    -3.30037453    -0.62657367
