37
C-O distance = 2.99929469 Angstrom
O     -3.02589618     0.48165492     0.14030341
H     -3.91222320     0.22317119     0.28582198
C     -0.07804702    -0.07147613     0.14015802
Cl     1.64021544     0.32930431    -0.48212697
H     -0.08204159     0.22796995     1.17300164
H     -0.18570006    -1.12577905    -0.00845447
H     -0.82794960     0.47674122    -0.40034187
O     -0.80866296     3.64260787     0.35016100
H     -0.69108640     3.50713369    -0.57950296
H     -1.55704641     3.16214098     0.74906406
O      4.03456230     2.77184017    -0.77437269
H      4.20559582     3.67812567    -0.94402689
H      3.07869662     2.67436235    -0.80096691
O     -2.31197009     2.34188123     1.63377194
H     -1.69318661     2.02777309     2.28811831
H     -2.70290152     1.54914545     1.05877206
O      1.20595719    -2.85890369     1.90330533
H      0.99438936    -2.01878858     2.30339833
H      0.43716781    -3.22628083     1.46287239
O     -2.22020680    -2.76377581    -2.18034068
H     -1.27346559    -2.83716100    -2.30104560
H     -2.40990276    -1.85445853    -1.95749469
O      1.77249035     4.37601215    -1.08246955
H      1.94508650     5.30496761    -1.18523876
H      0.84291121     4.20156188    -0.97494120
O      7.00892364     2.77445541    -0.68111840
H      7.03216790     3.71713197    -0.80327232
H      6.09762049     2.45144991    -0.69040866
O      1.13336338     2.47663492     2.42195941
H      1.66969652     2.23511646     1.67387418
H      0.55650385     3.17406174     2.10612158
O      4.13023645    -2.41685796     1.59422787
H      4.19701909    -1.57408615     1.14771869
H      3.21605974    -2.66976826     1.74010772
O      0.84390677    -2.80795695    -1.87238330
H      1.36263684    -2.00373737    -1.90197624
H      1.35727494    -3.50346810    -1.46051473
