37
C-O distance = 1.87498897 Angstrom
O     -1.33676137     0.11689625    -0.98791520
H     -1.81064900    -0.05345635    -1.79612588
C      0.49818856    -0.06146935    -1.32957016
Cl     3.37963370    -0.11248899    -1.97499660
H      0.85321743     0.14533846    -0.34520683
H      0.54037980    -1.07966617    -1.64697304
H      0.63694007     0.69592254    -2.06620293
O     -0.32672937     4.24589352     0.21686462
H     -0.43913761     4.57425611    -0.66501623
H     -0.92023515     3.50552746     0.41715034
O      4.09037415     2.81452631    -0.60160328
H      3.36065385     2.92682598     0.00444978
H      4.06032422     1.96248911    -1.04100380
O     -1.76003831     2.01920457     0.69673506
H     -2.49147247     1.86255201     1.27979121
H     -1.64586264     1.30142744     0.02398662
O      0.99735367    -1.50783628     2.07413201
H      1.01735544    -0.55978924     2.23179867
H      0.11977461    -1.80565364     1.82086594
O     -1.39339667    -2.19932914     0.68289915
H     -0.99672425    -2.88611251     0.13849533
H     -1.50110225    -1.39518405     0.17163991
O      2.05472475     3.61817374     1.28584019
H      2.55966193     4.27804074     1.74337592
H      1.24673567     3.96583777     0.87653131
O      5.91187875     4.80900322    -0.96946361
H      6.26106411     4.68653586    -1.84331213
H      5.28186876     4.10212557    -0.76633475
O      0.74144801     1.26552098     2.11549757
H      1.40369874     1.94114202     1.96160523
H     -0.10632679     1.53368776     1.76932599
O      2.39561884    -2.61251356     0.01453886
H      2.91706603    -2.00291636    -0.50839664
H      2.09471035    -2.22607197     0.84986837
O      0.22710751    -3.68369524    -1.01055920
H      0.31880935    -4.48769145    -1.50280724
H      1.08488754    -3.35013890    -0.67190853
