37
C-O distance = 1.42500000 Angstrom
O     -1.32220661     0.02576897    -1.38578280
H     -1.97613447    -0.08365877    -2.06483761
C      0.00854314    -0.25305245    -1.81238416
Cl     3.38814707    -0.17505400    -2.65615156
H      0.63551710    -0.18997770    -0.94406487
H      0.08261189    -1.25180535    -2.21265110
H      0.34166099     0.46503786    -2.54387877
O      0.51777348     4.17989960    -0.34699815
H      1.22812135     3.67613185    -0.75056891
H     -0.23085211     3.61693665    -0.15867420
O      2.61893459     2.25987880    -0.72620781
H      2.28476057     1.82464090     0.06119293
H      2.88558562     1.62673778    -1.40567285
O     -1.30926437     2.02367236     0.46002295
H     -2.04939443     2.02913481     1.05348109
H     -1.37399051     1.32771519    -0.20904628
O      1.43911582    -1.04249875     1.70449621
H      1.52141755    -0.10168735     1.87548854
H      0.52516393    -1.32952051     1.65352310
O     -1.15609734    -1.95053487     0.86558948
H     -0.80108670    -2.73215802     0.42208784
H     -1.42076442    -1.30007466     0.22183779
O      2.08653475     4.34940731     2.01846869
H      2.99460433     4.40319463     1.70943966
H      1.48520999     4.60316898     1.31379442
O      4.34590647     4.02014278     0.42945952
H      5.25693833     3.75931961     0.43646927
H      3.80389340     3.43382060    -0.11874327
O      1.25040420     1.74052028     1.73288844
H      1.60948127     2.57234690     2.07177730
H      0.36080244     1.85881126     1.39701273
O      2.42447560    -2.44921304    -0.42319053
H      2.84882006    -1.93585113    -1.11319444
H      2.29194273    -1.93610420     0.38497797
O      0.18949545    -3.79494055    -0.63903691
H      0.27444733    -4.73760436    -0.67625855
H      1.06077270    -3.34173428    -0.64724189
