37
C-O distance = 2.77522501 Angstrom
O     -2.02803274    -0.02378067    -0.09855312
H     -2.92502572     0.05083127    -0.40070652
C      0.61433038     0.19874279    -0.91725595
Cl     2.28197914     0.12491469    -1.89107898
H      0.88119704     0.50288340     0.07512396
H      0.23321573    -0.79236085    -0.98280032
H      0.02646765     0.92525384    -1.43363154
O     -0.63900969     3.81548441    -0.46758577
H     -1.09239595     3.84855753    -1.29765171
H     -1.03647952     3.15729783     0.20817532
O      4.08887609     3.09010822    -0.82275213
H      3.31897745     3.55964909    -0.47648638
H      3.84488265     2.23183920    -1.14904333
O     -1.49151127     2.11695369     1.15253569
H     -2.06911682     2.38248472     1.86103950
H     -1.78826273     0.78432251     0.45643295
O      0.39305739    -2.24865104     2.32535411
H      0.43456303    -1.32735721     2.55936487
H     -0.31034154    -2.43564831     1.67584384
O     -1.20714634    -2.58339787     0.20208410
H     -0.73637304    -2.92237599    -0.56092335
H     -1.56169230    -1.69592557     0.06136743
O      1.84957434     4.30580950     0.15756527
H      1.87062589     5.06837151     0.71990819
H      0.93819984     4.11284873    -0.15758256
O      6.74936827     3.76684550    -0.67681395
H      6.77283922     4.67245457    -0.95864339
H      5.83817817     3.44468164    -0.66718864
O      1.01743230     1.71654381     2.02923082
H      1.56927753     2.38555735     1.63544122
H      0.08348614     1.85581442     1.78647817
O      2.33546698    -2.98925887     0.56305008
H      3.10703051    -2.43722532     0.57209149
H      1.75003633    -2.82233874     1.31505573
O      0.81118982    -3.23395785    -1.71211641
H      1.21032455    -2.71068121    -2.39770387
H      1.39099275    -3.27612739    -0.93932048
