37
C-O distance = 2.32522065 Angstrom
O     -1.57230204     0.17310417    -0.85335355
H     -2.35615657     0.10988878    -1.38548540
C      0.66491940     0.02477149    -1.46938009
Cl     2.60749942    -0.01423048    -2.00829048
H      0.72710474     0.31758305    -0.44634517
H      0.37115124    -0.98388434    -1.64658100
H      0.28171048     0.75356935    -2.14217502
O     -0.38808412     4.13507771     0.17042740
H     -0.60161673     4.46342576    -0.69193576
H     -0.95176540     3.33400399     0.44195365
O      4.06819587     2.97974803    -0.57733480
H      3.36389854     3.26439218     0.01677973
H      3.87958325     2.13357603    -0.96749932
O     -1.61997309     2.05036422     0.82164864
H     -2.32687094     2.07976674     1.45844680
H     -1.63087568     0.92794802    -0.17631521
O      0.92708944    -1.49300683     2.06037403
H      0.93551467    -0.52850506     2.12526008
H      0.06064022    -1.81525968     1.79490754
O     -1.35704382    -2.26789126     0.59396332
H     -0.93441077    -2.90887670     0.01807458
H     -1.48519665    -1.43137691     0.13958923
O      2.02392445     3.77338912     1.09366158
H      2.23743448     4.33541996     1.82674556
H      1.14151379     3.97446062     0.70878772
O      6.39324570     4.38400626    -0.94161387
H      6.26144777     4.75185960    -1.80630224
H      5.63187508     3.84006707    -0.70098627
O      0.69469374     1.22258047     1.87726136
H      1.34347845     1.90683947     1.73564616
H     -0.18983253     1.50214803     1.56579254
O      2.47403508    -2.68507404     0.26168085
H      2.99094033    -2.05241723    -0.22410305
H      2.03612987    -2.27445447     1.03359443
O      0.38735441    -3.69194280    -1.06108216
H      0.52967907    -4.44346593    -1.61952998
H      1.20181534    -3.39440090    -0.61562501
