37
C-O distance = 2.47496877 Angstrom
O     -1.76408990     0.14257649    -0.78296426
H     -2.58704767     0.11251478    -1.25535151
C      0.60464027     0.01445819    -1.48877829
Cl     2.48237663     0.00942328    -2.08541912
H      0.65443698     0.42549608    -0.50493560
H      0.33192304    -1.01609032    -1.52397991
H      0.12380056     0.63318401    -2.21015384
O     -0.39369810     4.08931581     0.12124191
H     -0.60072428     4.36615608    -0.76071118
H     -0.96550269     3.30817746     0.43576713
O      4.07154967     2.95781912    -0.60385962
H      3.36990840     3.25874767    -0.01373658
H      3.85159701     2.13138761    -1.01813396
O     -1.64344219     2.05477432     0.87100930
H     -2.32927241     2.11080664     1.52901851
H     -1.74018378     0.90186153    -0.11470295
O      0.91627656    -1.47282658     2.04804518
H      0.92068222    -0.50826603     2.11414545
H      0.05593763    -1.80170845     1.76900711
O     -1.34839885    -2.28738230     0.58690099
H     -0.90693793    -2.90307291    -0.00106911
H     -1.54284486    -1.45759658     0.14135027
O      2.01725719     3.77820641     1.04112269
H      2.22273343     4.33994318     1.77680590
H      1.12839985     3.96176563     0.66163314
O      6.48485890     4.22607995    -0.88803579
H      6.36086977     4.68631702    -1.70849060
H      5.68959773     3.72099830    -0.67524164
O      0.68493936     1.23964813     1.87989486
H      1.33438191     1.91880824     1.71956800
H     -0.20431219     1.51613854     1.57849675
O      2.54160880    -2.63920419     0.31503483
H      3.05962502    -1.99260985    -0.14975179
H      2.06236783    -2.23827871     1.06934081
O      0.47443717    -3.63920113    -1.06189613
H      0.67346769    -4.15410677    -1.83162028
H      1.27374393    -3.35702552    -0.58237033
