37
C-O distance = 2.93211622 Angstrom
O     -2.62098015     0.14964348     0.12530374
H     -3.50306444     0.36176657    -0.15584624
C      0.30543037     0.10300880    -0.05147906
Cl     2.06596072    -0.00285628    -0.80907241
H      0.44606419     0.53280925     0.91580478
H     -0.04962140    -0.90434360    -0.04424315
H     -0.24971413     0.73346351    -0.70758206
O     -0.75551845     3.54635359    -0.46262969
H     -1.19008314     3.31975901    -1.27548392
H     -1.15419586     3.03796645     0.34616063
O      3.93601406     3.01981758    -0.76355962
H      3.19247912     3.62126271    -0.61726865
H      3.62947713     2.15083302    -0.99206214
O     -1.65692847     2.12155926     1.38479088
H     -1.91462030     2.42758224     2.24779470
H     -2.25001628     0.88452930     0.70366006
O      1.07176832    -2.78813993     1.89544749
H      0.73183700    -2.12588058     2.48635975
H      0.40897589    -3.09509036     1.28689353
O     -2.22743991    -2.12081876    -1.30222101
H     -1.33729973    -2.37204994    -1.52719050
H     -2.27765615    -1.33714452    -0.74597542
O      1.69039408     4.50652687    -0.42305320
H      1.68267476     5.43661436    -0.60253681
H      0.78533047     4.12329101    -0.42359599
O      6.67766094     2.84281590    -0.71516448
H      7.09073268     3.69361027    -0.77744830
H      5.71628257     2.93073290    -0.67333238
O      1.16661061     2.33056866     2.20694801
H      1.70596576     2.82017632     1.59519298
H      0.24365873     2.32305227     1.94528107
O      3.88154424    -2.72647619     1.30840847
H      4.07381928    -1.84387433     1.01384891
H      2.95813416    -2.81086308     1.54712296
O      0.75560186    -2.86779867    -1.72637730
H      1.24654418    -2.05769471    -1.82971094
H      1.33905337    -3.58623439    -1.51062382
