37
C-O distance = 1.20000000 Angstrom
O     -1.22345562     0.02566337    -1.52523276
H     -1.94868867    -0.08776184    -2.12356357
C     -0.10467297    -0.18247086    -1.90602865
Cl     3.45833490    -0.14889088    -2.63882528
H      0.61384854    -0.09737874    -1.10259626
H      0.07918979    -1.18210868    -2.30577495
H      0.27058851     0.49965078    -2.67292239
O      0.52611674     4.16320832    -0.34973568
H      1.23630340     3.64884490    -0.74202843
H     -0.22976718     3.61036215    -0.16489508
O      2.61559608     2.24920785    -0.71505379
H      2.29194970     1.80316184     0.07002086
H      2.88813827     1.62315927    -1.40022295
O     -1.30682658     1.96963799     0.44493730
H     -2.03262396     1.90561108     1.05295680
H     -1.33883950     1.29554311    -0.24251152
O      1.45865726    -1.03507749     1.72635374
H      1.54418874    -0.09386877     1.89325281
H      0.54364727    -1.31320952     1.66593795
O     -1.15446725    -1.91928320     0.84730614
H     -0.79255419    -2.72051242     0.44277477
H     -1.36419359    -1.28295355     0.17225418
O      2.08693704     4.35537156     2.02203436
H      2.99732710     4.39803124     1.71747249
H      1.49105773     4.60560561     1.31170340
O      4.35375144     3.98737466     0.45801585
H      5.26028644     3.71166679     0.47539599
H      3.80951530     3.41008488    -0.09750930
O      1.25539245     1.74453557     1.75931727
H      1.61218242     2.58210003     2.08664870
H      0.37276053     1.85817218     1.40674202
O      2.39715076    -2.41508906    -0.44896541
H      2.81657781    -1.90198398    -1.14268651
H      2.28549106    -1.90638392     0.36437302
O      0.19010237    -3.80619990    -0.56848626
H      0.30157993    -4.74671868    -0.56044285
H      1.04828188    -3.33021553    -0.62637050
