37
C-O distance = 2.39993302 Angstrom
O     -1.66164680     0.11746630    -0.74067787
H     -2.40448754     0.13397839    -1.33184835
C      0.63048834     0.01289350    -1.44414037
Cl     2.53100800     0.01050970    -2.05407414
H      0.70787702     0.34604551    -0.43390379
H      0.34812076    -1.00763764    -1.56685324
H      0.18537956     0.70252550    -2.12159407
O     -0.39131868     4.13547419     0.11222188
H     -0.61679454     4.45029382    -0.75197908
H     -0.95497552     3.34306312     0.41152312
O      4.05607476     2.96475945    -0.59362493
H      3.35592136     3.26637666    -0.00266343
H      3.84204933     2.13115360    -0.99705028
O     -1.62307794     2.08100430     0.84858991
H     -2.31302884     2.14497593     1.50140149
H     -1.67848509     0.89833050    -0.09514985
O      0.90852472    -1.49412519     2.06699768
H      0.90507946    -0.52958345     2.12491959
H      0.05078462    -1.83534455     1.79538768
O     -1.35052676    -2.34040678     0.60439916
H     -0.91395864    -2.95359481     0.01007949
H     -1.53165995    -1.50307566     0.16723863
O      2.01350024     3.79087602     1.05580066
H      2.20725903     4.35066031     1.79600316
H      1.13373779     3.98206652     0.65957817
O      6.43880451     4.27977829    -0.90493691
H      6.30990677     4.70679760    -1.74243863
H      5.65662931     3.75760234    -0.68383648
O      0.69476290     1.22998294     1.86396696
H      1.34719959     1.91023861     1.72064399
H     -0.19084144     1.52071104     1.56515470
O      2.49643540    -2.63619034     0.27378778
H      3.00675582    -1.98540952    -0.19408427
H      2.03640908    -2.24744480     1.04480049
O      0.44977172    -3.67127279    -1.09649384
H      0.64175798    -4.29426907    -1.78365357
H      1.24900241    -3.37078954    -0.62697174
