37
C-O distance = 1.35000000 Angstrom
O     -1.28843663     0.02475945    -1.42434423
H     -1.96379722    -0.08468593    -2.08095612
C     -0.02869368    -0.23680319    -1.83316286
Cl     3.40828949    -0.16426776    -2.65706385
H      0.62617853    -0.17175109    -0.98319419
H      0.07661408    -1.23651609    -2.23301325
H      0.32500258     0.46734110    -2.57381816
O      0.52196897     4.17714432    -0.35372082
H      1.23260787     3.66902323    -0.75192561
H     -0.22887373     3.61756072    -0.16548573
O      2.61599339     2.25507918    -0.72438350
H      2.28143791     1.81664658     0.06087832
H      2.88505372     1.62439661    -1.40573040
O     -1.31082814     2.01262826     0.45160635
H     -2.05112078     2.00294537     1.04488909
H     -1.36341487     1.32035711    -0.22046322
O      1.45391638    -1.03760622     1.70672561
H      1.53408078    -0.09625275     1.87568459
H      0.54028311    -1.32489388     1.65748918
O     -1.14984272    -1.94215868     0.87087743
H     -0.79395961    -2.72873058     0.43584695
H     -1.40376926    -1.29552382     0.21984396
O      2.08133935     4.35258693     2.01938802
H      2.99140350     4.39934872     1.71485796
H      1.48491355     4.60585213     1.31045746
O      4.34711962     3.99970667     0.44791935
H      5.25613529     3.73205530     0.45944642
H      3.80443056     3.41944768    -0.10608695
O      1.24728859     1.74317193     1.73788073
H      1.60483475     2.57692372     2.07369566
H      0.35889357     1.85915867     1.39888995
O      2.42034422    -2.43826433    -0.43688635
H      2.84100117    -1.92508409    -1.12947672
H      2.29638139    -1.92569135     0.37276975
O      0.19050833    -3.79500452    -0.61516398
H      0.28129051    -4.73715430    -0.65052161
H      1.05853052    -3.33567415    -0.64108842
