37
C-O distance = 2.25010608 Angstrom
O     -1.49844755     0.15701290    -0.83261420
H     -2.21385307     0.14552178    -1.45727366
C      0.66685515     0.02989433    -1.43118118
Cl     2.65613832    -0.00997207    -1.98789514
H      0.76240298     0.32063482    -0.41115102
H      0.40158084    -0.98327785    -1.62141513
H      0.31931404     0.76512636    -2.11480840
O     -0.38496760     4.15443856     0.17690673
H     -0.60473607     4.50531215    -0.67481880
H     -0.94497719     3.34841847     0.43346436
O      4.06614566     2.98441066    -0.57473681
H      3.36258136     3.26269896     0.02224072
H      3.88255763     2.13790568    -0.96754784
O     -1.60832983     2.05190147     0.80315765
H     -2.32092948     2.07682459     1.43359721
H     -1.58630487     0.92351044    -0.16393577
O      0.91617871    -1.50240644     2.06252014
H      0.92451931    -0.53819107     2.12500476
H      0.05068258    -1.82922427     1.80015096
O     -1.37156110    -2.29749475     0.59953434
H     -0.94535968    -2.93715166     0.02444918
H     -1.49676563    -1.46014823     0.14635450
O      2.02385006     3.77364217     1.11032938
H      2.23970771     4.33427087     1.84379301
H      1.14618157     3.98309785     0.72100452
O      6.36117602     4.42839996    -0.95791810
H      6.22833219     4.76941220    -1.83339866
H      5.61151957     3.87116776    -0.71034313
O      0.70531956     1.21881924     1.86595107
H      1.35606343     1.90432051     1.73844057
H     -0.17677937     1.50611470     1.55754520
O      2.44857008    -2.68326848     0.23428553
H      2.96398743    -2.04914638    -0.25170710
H      2.01880921    -2.27960997     1.01343105
O      0.36924198    -3.71743564    -1.06720123
H      0.50659434    -4.50523589    -1.57473622
H      1.18296602    -3.40614630    -0.62847982
