37
C-O distance = 1.57500000 Angstrom
O     -1.32788686     0.09815647    -1.31904124
H     -1.90696185    -0.00831364    -2.06606018
C      0.16326883    -0.23303823    -1.70295501
Cl     3.56138488    -0.27476027    -2.44411151
H      0.68963669    -0.18390165    -0.77281478
H      0.19110596    -1.22697529    -2.10791291
H      0.50060176     0.51070436    -2.39901079
O      0.51862519     4.16336534    -0.26664241
H      1.20673632     3.66514754    -0.71258045
H     -0.24176582     3.61464626    -0.08516425
O      2.55371811     2.23079832    -0.75446857
H      2.28815403     1.84490218     0.08379369
H      2.83845541     1.55355660    -1.38170778
O     -1.29672657     2.08885034     0.48608408
H     -2.02904243     2.08837159     1.08914387
H     -1.36810620     1.39565850    -0.18803904
O      1.24719940    -1.13407471     1.85378460
H      1.35038822    -0.19119252     2.00500512
H      0.33604272    -1.40107902     1.71858142
O     -1.27208467    -2.03586104     0.75020437
H     -0.86439818    -2.77416029     0.28056485
H     -1.50345901    -1.34512874     0.13432463
O      2.18968752     4.25428585     2.00782762
H      3.07778404     4.36940840     1.66560460
H      1.54901230     4.53109067     1.34727135
O      4.32918429     4.13708220     0.18506219
H      5.23387483     4.14507172    -0.09534211
H      3.79539940     3.47522573    -0.27465664
O      1.24478178     1.68801605     1.78885813
H      1.67605645     2.49525266     2.11044175
H      0.36978343     1.87876652     1.45027094
O      2.43064871    -2.47530018    -0.22351621
H      2.94049335    -1.95435148    -0.84652473
H      2.22658039    -1.99826565     0.59037241
O      0.20918216    -3.73024793    -0.82350059
H      0.27399708    -4.64917754    -1.04105951
H      1.08489839    -3.31419488    -0.66851364
