37
C-O distance = 1.95000346 Angstrom
O     -1.38973879     0.10901125    -0.96341052
H     -1.87450205    -0.04125033    -1.76905638
C      0.51647329    -0.05882695    -1.33850962
Cl     3.28457014    -0.10275945    -1.92959054
H      0.84526066     0.15359491    -0.34693207
H      0.53580524    -1.07811891    -1.65226584
H      0.59929243     0.70918852    -2.07100416
O     -0.37599067     4.24145757     0.24079421
H     -0.50362081     4.57753692    -0.63596491
H     -0.95757112     3.48928302     0.43760103
O      4.12672678     2.84467003    -0.61548211
H      3.38766301     2.98963297    -0.02685648
H      4.07851387     1.98558163    -1.03746811
O     -1.78317166     2.00184797     0.70641135
H     -2.49630515     1.84065082     1.31049862
H     -1.68388219     1.28202171     0.02591627
O      0.98888727    -1.49826032     2.09594676
H      1.01226806    -0.54819627     2.23950427
H      0.11349482    -1.79224243     1.82763534
O     -1.36451842    -2.19455919     0.68154795
H     -0.98249885    -2.88254297     0.13000132
H     -1.50101849    -1.39569021     0.16489428
O      2.04641539     3.64051867     1.23332646
H      2.51930767     4.29047955     1.73700606
H      1.21829893     3.97539615     0.85402404
O      6.06686166     4.73862986    -0.95910996
H      6.25045633     4.72724929    -1.89010298
H      5.41451133     4.05607969    -0.74589817
O      0.72429461     1.27924388     2.08297694
H      1.38533644     1.95077740     1.91135327
H     -0.12405292     1.53089717     1.72429034
O      2.39699788    -2.64827280     0.07516191
H      2.91507868    -2.03367352    -0.44363895
H      2.07838899    -2.25525033     0.90206979
O      0.24583682    -3.66854938    -1.05021035
H      0.34335628    -4.45066477    -1.57550925
H      1.09492084    -3.36289939    -0.66870881
