37
C-O distance = 2.70035351 Angstrom
O     -2.00791539     0.08789883    -0.28523006
H     -2.83181134     0.18964402    -0.74518122
C      0.54040716     0.17611988    -1.17414979
Cl     2.28818052     0.07226616    -1.99871465
H      0.72679881     0.43786469    -0.15359575
H      0.13596079    -0.80130954    -1.29437926
H      0.02497360     0.93322936    -1.72286019
O     -0.60134081     3.84127119    -0.37991767
H     -1.00471665     3.86509666    -1.23614908
H     -1.04304148     3.18550814     0.25730693
O      4.10203282     3.04861241    -0.82582115
H      3.34098849     3.47547229    -0.40952928
H      3.86279749     2.21034194    -1.20321849
O     -1.54403116     2.09683292     1.17053321
H     -2.13129126     2.34681504     1.87692112
H     -1.83743939     0.85936146     0.33915572
O      0.65043556    -1.82920446     2.19737453
H      0.70518300    -0.87919953     2.30209002
H     -0.15014829    -2.10984545     1.73406842
O     -1.31830479    -2.49516086     0.36695763
H     -0.80886052    -2.90157611    -0.33528046
H     -1.63304957    -1.61475961     0.12839215
O      1.89684961     4.15461147     0.32488684
H      1.95013675     4.86838094     0.94589159
H      0.98643314     4.04345601    -0.02178459
O      6.71707413     3.86908151    -0.63952886
H      6.70503565     4.71053149    -1.07762381
H      5.82824615     3.49056329    -0.63047123
O      0.81862301     1.25766395     2.01091040
H      1.48729351     1.88668082     1.75732974
H     -0.07529299     1.58259107     1.76521444
O      2.47118861    -2.95397030     0.58316567
H      3.21152962    -2.37595068     0.44864692
H      1.88634964    -2.62393195     1.28937268
O      0.75170101    -3.31209163    -1.49485366
H      1.08418298    -2.88607614    -2.27544210
H      1.41327001    -3.30420267    -0.78512804
