37
C-O distance = 2.10005534 Angstrom
O     -1.37283214     0.18744745    -0.86147432
H     -2.02656147     0.13493364    -1.54846509
C      0.66115403     0.03017659    -1.35987034
Cl     2.87347494    -0.05298142    -1.91374366
H      0.84947376     0.30800239    -0.34988320
H      0.49234117    -0.99229848    -1.59910156
H      0.47881435     0.78230284    -2.08570174
O     -0.39314716     4.16463590     0.20673649
H     -0.60887080     4.55034757    -0.63082130
H     -0.94844753     3.35712078     0.42350809
O      4.07826052     2.95916891    -0.58316372
H      3.36649210     3.20262785     0.01532614
H      3.93997340     2.09936343    -0.97018924
O     -1.62926111     2.01236865     0.73571709
H     -2.35418633     1.99730414     1.35123775
H     -1.53997742     0.97730960    -0.17063482
O      0.92999850    -1.51606442     2.08822482
H      0.94360733    -0.55276920     2.14530799
H      0.06001555    -1.83812572     1.83828843
O     -1.39379047    -2.26798795     0.63486064
H     -0.97469046    -2.91450215     0.06082918
H     -1.48841010    -1.42823916     0.18238085
O      2.01928485     3.72979188     1.14881582
H      2.28658509     4.31610327     1.84436967
H      1.15178322     3.97059806     0.76260416
O      6.27529268     4.54046480    -0.97629611
H      6.18706791     4.77895078    -1.89051794
H      5.55631551     3.94418111    -0.72662034
O      0.71112439     1.21064008     1.85187600
H      1.35875030     1.90441616     1.74634494
H     -0.16723218     1.49622281     1.54785896
O      2.41747913    -2.69557033     0.19509566
H      2.93298583    -2.06828067    -0.30321297
H      2.02816062    -2.29500521     0.99295893
O      0.30568742    -3.68330598    -1.05833850
H      0.41074818    -4.48190857    -1.55669714
H      1.13712033    -3.39143122    -0.63549280
