16
MMP + MEOH + Na + annealed ice
C     30.00000    23.30000    52.50000
O     31.43000    23.30000    52.50000
H     31.74000    24.22000    52.50000
H     29.64000    23.30000    53.53000
H     29.64000    22.41000    51.99000
H     29.64000    24.19000    51.99000
P     22.45000    31.63000    52.50000
O     23.37000    32.55000    53.42000
O     23.37000    30.71000    51.58000
O     21.53000    32.55000    51.58000
O     21.53000    30.71000    53.42000
C     24.80000    32.46000    53.33000
H     25.23000    33.46000    53.30000
H     25.07000    31.92000    52.42000
H     25.18000    31.92000    54.20000
H     24.30000    30.89000    51.76000