22
frame 0 | Written by MDAnalysis XYZWriter (release 2.10.0)
       O    -2.65656    0.07148   -0.07281
       H    -3.60798    0.16705   -0.05170
       C     0.28626   -0.49149   -0.18123
      Cl     2.18269   -0.16447   -0.29111
       H    -0.10524    0.24946    0.48034
       H     0.20566   -1.48080    0.22009
       H    -0.09433   -0.43377   -1.17786
       O     0.41628    3.60762   -0.20074
       H    -0.34719    4.17172   -0.17029
       H     0.20574    2.77414   -0.60859
       O     3.37038    3.71348   -0.32452
       H     2.43162    3.78744   -0.19649
       H     3.59615    2.79731   -0.41578
       O    -1.79059    1.58766    1.81134
       H    -1.21320    2.24663    1.45419
       H    -2.11724    0.99523    1.06465
       O     1.54146   -2.95727    2.17168
       H     0.79235   -2.45876    2.47408
       H     2.13986   -2.40920    1.68296
       O    -2.01885   -1.75217   -1.77506
       H    -1.88060   -2.55684   -1.31070
       H    -2.27192   -1.02189   -1.10860
22
frame 0 | Written by MDAnalysis XYZWriter (release 2.10.0)
       O    -1.88838    0.88783   -0.39533
       H    -2.75340    1.25672   -0.54167
       C     0.66483   -0.55577   -0.19570
      Cl     2.57817   -0.57030   -0.01615
       H     0.30213    0.06185    0.59802
       H     0.35696   -1.57756   -0.10492
       H     0.46344   -0.14691   -1.16155
       O    -0.34909    2.73367   -0.46170
       H    -0.82850    3.52174   -0.68491
       H    -0.96463    1.93541   -0.47607
       O     2.33788    3.36623   -0.32033
       H     1.40411    3.13237   -0.40097
       H     2.88826    2.60417   -0.18884
       O    -1.19392    1.17835    2.17609
       H    -0.65760    1.95167    2.02093
       H    -1.59159    0.93974    1.31805
       O     1.57726   -2.85030    2.53165
       H     0.92286   -2.20936    2.78390
       H     2.22832   -2.45481    1.96268
       O    -2.03518   -1.35840   -1.85966
       H    -2.30551   -2.08225   -1.30706
       H    -1.93148   -0.50279   -1.37647
22
frame 0 | Written by MDAnalysis XYZWriter (release 2.10.0)
       O    -1.75677    0.78846   -0.20091
       H    -2.67792    1.02191   -0.18352
       C     0.80961   -0.21463   -0.86514
      Cl     2.57977   -0.94783   -0.73655
       H     0.47131   -0.10953    0.14074
       H     0.22695   -0.91639   -1.42014
       H     0.93393    0.72572   -1.36109
       O    -0.39707    2.91986   -0.44915
       H    -0.79408    3.48629   -1.10313
       H    -0.92241    2.05270   -0.34718
       O     2.33957    3.15899   -0.17477
       H     1.37767    3.12826   -0.23815
       H     2.70246    2.29125   -0.02327
       O    -0.71801    0.38086    2.08425
       H    -0.34408    1.20954    2.35896
       H    -1.20073    0.46813    1.21815
       O     0.97390   -1.97893    2.78555
       H     0.35826   -1.23946    2.67778
       H     1.57838   -2.03633    2.05604
       O    -1.92690   -1.48124   -1.66017
       H    -2.17427   -2.22280   -1.12863
       H    -1.82165   -0.65838   -1.13244
22
frame 0 | Written by MDAnalysis XYZWriter (release 2.10.0)
       O    -1.67024    0.73697   -0.19132
       H    -2.58641    0.99027   -0.07668
       C     0.80885   -0.22083   -0.99277
      Cl     2.65946   -0.67448   -1.28175
       H     0.65031   -0.34421    0.05556
       H     0.24538   -0.90091   -1.59491
       H     0.72017    0.79565   -1.30466
       O    -0.32403    2.88035   -0.63284
       H    -0.66426    3.36129   -1.37551
       H    -0.85046    2.04727   -0.44680
       O     2.33333    3.33342   -0.00644
       H     1.38405    3.23652   -0.15001
       H     2.78788    2.52881   -0.22602
       O    -0.62723    0.24511    2.11824
       H    -0.31921    1.07205    2.46777
       H    -1.08383    0.37561    1.24255
       O     0.72434   -1.99715    2.95282
       H     0.14796   -1.25269    2.73487
       H     1.47622   -2.00914    2.37329
       O    -2.11622   -1.48799   -1.62851
       H    -2.04029   -2.21960   -1.02814
       H    -1.94057   -0.64418   -1.16200
22
frame 0 | Written by MDAnalysis XYZWriter (release 2.10.0)
       O    -1.42074    0.73635   -0.15134
       H    -2.30068    0.93026    0.17707
       C     0.87765   -0.18973   -1.23669
      Cl     2.65487   -0.68035   -1.82625
       H     0.91340   -0.26023   -0.17312
       H     0.22467   -0.90278   -1.69224
       H     0.73770    0.80846   -1.58729
       O    -0.41491    2.92962   -1.00467
       H    -0.75053    3.20590   -1.84730
       H    -0.83474    2.08165   -0.67074
       O     1.87785    3.61775    0.35648
       H     1.03784    3.51450   -0.10829
       H     2.44210    2.87553    0.17678
       O    -0.03648    0.24969    1.98103
       H     0.44651    1.03163    2.21957
       H    -0.59834    0.40029    1.17225
       O     0.20805   -2.20618    3.22140
       H     0.05222   -1.31892    2.87106
       H     0.80217   -2.68030    2.65362
       O    -2.10815   -1.48491   -1.51061
       H    -2.17146   -2.16908   -0.85502
       H    -1.85845   -0.63722   -1.09037

