37
frame 0 | Written by MDAnalysis XYZWriter (release 2.10.0)
       O    -3.02590    0.48165    0.14030
       H    -3.91222    0.22317    0.28582
       C    -0.07805   -0.07148    0.14016
      Cl     1.64022    0.32930   -0.48213
       H    -0.08204    0.22797    1.17300
       H    -0.18570   -1.12578   -0.00845
       H    -0.82795    0.47674   -0.40034
       O    -0.80866    3.64261    0.35016
       H    -0.69109    3.50713   -0.57950
       H    -1.55705    3.16214    0.74906
       O     4.03456    2.77184   -0.77437
       H     4.20560    3.67813   -0.94403
       H     3.07870    2.67436   -0.80097
       O    -2.31197    2.34188    1.63377
       H    -1.69319    2.02777    2.28812
       H    -2.70290    1.54915    1.05877
       O     1.20596   -2.85890    1.90331
       H     0.99439   -2.01879    2.30340
       H     0.43717   -3.22628    1.46287
       O    -2.22021   -2.76378   -2.18034
       H    -1.27347   -2.83716   -2.30105
       H    -2.40990   -1.85446   -1.95749
       O     1.77249    4.37601   -1.08247
       H     1.94509    5.30497   -1.18524
       H     0.84291    4.20156   -0.97494
       O     7.00892    2.77446   -0.68112
       H     7.03217    3.71713   -0.80327
       H     6.09762    2.45145   -0.69041
       O     1.13336    2.47663    2.42196
       H     1.66970    2.23512    1.67387
       H     0.55650    3.17406    2.10612
       O     4.13024   -2.41686    1.59423
       H     4.19702   -1.57409    1.14772
       H     3.21606   -2.66977    1.74011
       O     0.84391   -2.80796   -1.87238
       H     1.36264   -2.00374   -1.90198
       H     1.35727   -3.50347   -1.46051
37
frame 0 | Written by MDAnalysis XYZWriter (release 2.10.0)
       O    -2.62098    0.14964    0.12530
       H    -3.50306    0.36177   -0.15585
       C     0.30543    0.10301   -0.05148
      Cl     2.06596   -0.00286   -0.80907
       H     0.44606    0.53281    0.91580
       H    -0.04962   -0.90434   -0.04424
       H    -0.24971    0.73346   -0.70758
       O    -0.75552    3.54635   -0.46263
       H    -1.19008    3.31976   -1.27548
       H    -1.15420    3.03797    0.34616
       O     3.93601    3.01982   -0.76356
       H     3.19248    3.62126   -0.61727
       H     3.62948    2.15083   -0.99206
       O    -1.65693    2.12156    1.38479
       H    -1.91462    2.42758    2.24779
       H    -2.25002    0.88453    0.70366
       O     1.07177   -2.78814    1.89545
       H     0.73184   -2.12588    2.48636
       H     0.40898   -3.09509    1.28689
       O    -2.22744   -2.12082   -1.30222
       H    -1.33730   -2.37205   -1.52719
       H    -2.27766   -1.33714   -0.74598
       O     1.69039    4.50653   -0.42305
       H     1.68267    5.43661   -0.60254
       H     0.78533    4.12329   -0.42360
       O     6.67766    2.84282   -0.71516
       H     7.09073    3.69361   -0.77745
       H     5.71628    2.93073   -0.67333
       O     1.16661    2.33057    2.20695
       H     1.70597    2.82018    1.59519
       H     0.24366    2.32305    1.94528
       O     3.88154   -2.72648    1.30841
       H     4.07382   -1.84387    1.01385
       H     2.95813   -2.81086    1.54712
       O     0.75560   -2.86780   -1.72638
       H     1.24654   -2.05769   -1.82971
       H     1.33905   -3.58623   -1.51062
37
frame 0 | Written by MDAnalysis XYZWriter (release 2.10.0)
       O    -2.07280    0.11084    0.24783
       H    -3.00945    0.06541    0.09360
       C     0.64061    0.47528   -0.54871
      Cl     2.26636   -0.12246   -1.39808
       H     0.92782    0.77893    0.43856
       H    -0.01196   -0.36480   -0.57418
       H     0.29616    1.28896   -1.15150
       O    -0.77450    3.77356   -0.54660
       H    -1.24002    3.64658   -1.36105
       H    -1.16010    3.23250    0.23396
       O     3.96983    2.96666   -0.79555
       H     3.19787    3.49201   -0.54634
       H     3.72511    2.08277   -1.04117
       O    -1.55515    2.35455    1.34165
       H    -2.16472    2.66396    2.00404
       H    -1.83037    0.96436    0.72794
       O     0.63134   -2.46920    1.62754
       H     0.11535   -1.76038    1.99333
       H     0.24689   -2.80386    0.82164
       O    -1.90346   -2.54417   -0.64261
       H    -1.09325   -2.89535   -0.99950
       H    -1.81957   -1.64687   -0.31440
       O     1.72367    4.34916   -0.10162
       H     1.76891    5.22265    0.26356
       H     0.80246    4.11495   -0.35284
       O     6.67678    3.38290   -0.74011
       H     6.83297    4.31610   -0.79903
       H     5.72844    3.19651   -0.71330
       O     0.98836    2.20493    2.21261
       H     1.49101    2.84051    1.71502
       H     0.04411    2.25656    1.98354
       O     3.14504   -3.22947    0.72040
       H     3.65152   -2.48528    0.41555
       H     2.42557   -2.93681    1.28788
       O     0.91454   -3.32376   -1.18884
       H     1.34243   -2.56220   -1.57022
       H     1.57551   -3.85731   -0.75183
37
frame 0 | Written by MDAnalysis XYZWriter (release 2.10.0)
       O    -2.02803   -0.02378   -0.09855
       H    -2.92503    0.05083   -0.40071
       C     0.61433    0.19874   -0.91726
      Cl     2.28198    0.12491   -1.89108
       H     0.88120    0.50288    0.07512
       H     0.23322   -0.79236   -0.98280
       H     0.02647    0.92525   -1.43363
       O    -0.63901    3.81548   -0.46759
       H    -1.09240    3.84856   -1.29765
       H    -1.03648    3.15730    0.20818
       O     4.08888    3.09011   -0.82275
       H     3.31898    3.55965   -0.47649
       H     3.84488    2.23184   -1.14904
       O    -1.49151    2.11695    1.15254
       H    -2.06912    2.38248    1.86104
       H    -1.78826    0.78432    0.45643
       O     0.39306   -2.24865    2.32535
       H     0.43456   -1.32736    2.55936
       H    -0.31034   -2.43565    1.67584
       O    -1.20715   -2.58340    0.20208
       H    -0.73637   -2.92238   -0.56092
       H    -1.56169   -1.69593    0.06137
       O     1.84957    4.30581    0.15757
       H     1.87063    5.06837    0.71991
       H     0.93820    4.11285   -0.15758
       O     6.74937    3.76685   -0.67681
       H     6.77284    4.67245   -0.95864
       H     5.83818    3.44468   -0.66719
       O     1.01743    1.71654    2.02923
       H     1.56928    2.38556    1.63544
       H     0.08349    1.85581    1.78648
       O     2.33547   -2.98926    0.56305
       H     3.10703   -2.43723    0.57209
       H     1.75004   -2.82234    1.31506
       O     0.81119   -3.23396   -1.71212
       H     1.21032   -2.71068   -2.39770
       H     1.39099   -3.27613   -0.93932
37
frame 0 | Written by MDAnalysis XYZWriter (release 2.10.0)
       O    -2.00792    0.08790   -0.28523
       H    -2.83181    0.18964   -0.74518
       C     0.54041    0.17612   -1.17415
      Cl     2.28818    0.07227   -1.99871
       H     0.72680    0.43786   -0.15360
       H     0.13596   -0.80131   -1.29438
       H     0.02497    0.93323   -1.72286
       O    -0.60134    3.84127   -0.37992
       H    -1.00472    3.86510   -1.23615
       H    -1.04304    3.18551    0.25731
       O     4.10203    3.04861   -0.82582
       H     3.34099    3.47547   -0.40953
       H     3.86280    2.21034   -1.20322
       O    -1.54403    2.09683    1.17053
       H    -2.13129    2.34682    1.87692
       H    -1.83744    0.85936    0.33916
       O     0.65044   -1.82920    2.19737
       H     0.70518   -0.87920    2.30209
       H    -0.15015   -2.10985    1.73407
       O    -1.31830   -2.49516    0.36696
       H    -0.80886   -2.90158   -0.33528
       H    -1.63305   -1.61476    0.12839
       O     1.89685    4.15461    0.32489
       H     1.95014    4.86838    0.94589
       H     0.98643    4.04346   -0.02178
       O     6.71707    3.86908   -0.63953
       H     6.70504    4.71053   -1.07762
       H     5.82825    3.49056   -0.63047
       O     0.81862    1.25766    2.01091
       H     1.48729    1.88668    1.75733
       H    -0.07529    1.58259    1.76521
       O     2.47119   -2.95397    0.58317
       H     3.21153   -2.37595    0.44865
       H     1.88635   -2.62393    1.28937
       O     0.75170   -3.31209   -1.49485
       H     1.08418   -2.88608   -2.27544
       H     1.41327   -3.30420   -0.78513
37
frame 0 | Written by MDAnalysis XYZWriter (release 2.10.0)
       O    -2.00239    0.16720   -0.58700
       H    -2.84961    0.20058   -1.01399
       C     0.47067    0.09863   -1.46360
      Cl     2.24845    0.00373   -2.23666
       H     0.63166    0.24593   -0.41706
       H     0.03062   -0.84294   -1.69705
       H     0.01120    0.92953   -1.95050
       O    -0.49081    3.90366   -0.11106
       H    -0.78154    4.03488   -1.00275
       H    -1.03611    3.20053    0.38499
       O     4.08987    2.89124   -0.78938
       H     3.35386    3.20534   -0.24893
       H     3.87280    2.07870   -1.23100
       O    -1.67622    2.05329    1.06813
       H    -2.30691    2.18930    1.76739
       H    -1.89729    0.90130    0.10060
       O     0.90043   -1.45445    2.07215
       H     0.91188   -0.48841    2.13000
       H     0.05473   -1.78187    1.74768
       O    -1.29454   -2.28918    0.53051
       H    -0.79613   -2.81688   -0.09577
       H    -1.60450   -1.46503    0.14178
       O     1.97547    3.74611    0.72719
       H     2.15026    4.36452    1.42464
       H     1.07195    3.85333    0.35222
       O     6.59304    4.02139   -0.63407
       H     6.55651    4.67496   -1.32083
       H     5.75897    3.53659   -0.59837
       O     0.71586    1.26007    1.88582
       H     1.35603    1.90651    1.60536
       H    -0.19720    1.53077    1.65369
       O     2.61296   -2.72482    0.53403
       H     3.29097   -2.14650    0.20780
       H     2.06367   -2.28760    1.21947
       O     0.65886   -3.47462   -1.18707
       H     0.91756   -3.35783   -2.09150
       H     1.40002   -3.31323   -0.57962
37
frame 0 | Written by MDAnalysis XYZWriter (release 2.10.0)
       O    -1.85797    0.08045   -0.59138
       H    -2.64143    0.10197   -1.12663
       C     0.55483   -0.00009   -1.41351
      Cl     2.36948   -0.02055   -2.15089
       H     0.68395    0.29663   -0.39487
       H     0.22416   -1.00621   -1.53348
       H     0.04658    0.71555   -2.01757
       O    -0.41015    4.07795    0.00359
       H    -0.67748    4.37628   -0.85426
       H    -0.98835    3.32025    0.37129
       O     4.05281    2.87160   -0.69866
       H     3.33988    3.18341   -0.12676
       H     3.83194    2.04971   -1.12054
       O    -1.66094    2.11479    0.91266
       H    -2.32266    2.24247    1.58510
       H    -1.80197    0.87960    0.02144
       O     0.88091   -1.48687    2.12103
       H     0.85776   -0.52283    2.16603
       H     0.04682   -1.85137    1.80571
       O    -1.29778   -2.38398    0.59068
       H    -0.83931   -2.93766   -0.04258
       H    -1.56396   -1.54517    0.19972
       O     2.00052    3.73120    0.90124
       H     2.21216    4.31253    1.61967
       H     1.11608    3.92209    0.51168
       O     6.50408    4.09018   -0.76340
       H     6.42467    4.64307   -1.53035
       H     5.68816    3.58860   -0.63771
       O     0.67246    1.24034    1.86460
       H     1.32995    1.90196    1.66500
       H    -0.21813    1.53653    1.58720
       O     2.56908   -2.57241    0.38712
       H     3.08398   -1.89411   -0.03392
       H     2.05678   -2.21755    1.14180
       O     0.60870   -3.55183   -1.18416
       H     0.85977   -3.67248   -2.09029
       H     1.36529   -3.30037   -0.62657
37
frame 0 | Written by MDAnalysis XYZWriter (release 2.10.0)
       O    -1.76409    0.14258   -0.78296
       H    -2.58705    0.11251   -1.25535
       C     0.60464    0.01446   -1.48878
      Cl     2.48238    0.00942   -2.08542
       H     0.65444    0.42550   -0.50494
       H     0.33192   -1.01609   -1.52398
       H     0.12380    0.63318   -2.21015
       O    -0.39370    4.08932    0.12124
       H    -0.60072    4.36616   -0.76071
       H    -0.96550    3.30818    0.43577
       O     4.07155    2.95782   -0.60386
       H     3.36991    3.25875   -0.01374
       H     3.85160    2.13139   -1.01813
       O    -1.64344    2.05477    0.87101
       H    -2.32927    2.11081    1.52902
       H    -1.74018    0.90186   -0.11470
       O     0.91628   -1.47283    2.04805
       H     0.92068   -0.50827    2.11415
       H     0.05594   -1.80171    1.76901
       O    -1.34840   -2.28738    0.58690
       H    -0.90694   -2.90307   -0.00107
       H    -1.54284   -1.45760    0.14135
       O     2.01726    3.77821    1.04112
       H     2.22273    4.33994    1.77681
       H     1.12840    3.96177    0.66163
       O     6.48486    4.22608   -0.88804
       H     6.36087    4.68632   -1.70849
       H     5.68960    3.72100   -0.67524
       O     0.68494    1.23965    1.87989
       H     1.33438    1.91881    1.71957
       H    -0.20431    1.51614    1.57850
       O     2.54161   -2.63920    0.31503
       H     3.05962   -1.99261   -0.14975
       H     2.06237   -2.23828    1.06934
       O     0.47444   -3.63920   -1.06190
       H     0.67347   -4.15411   -1.83162
       H     1.27374   -3.35703   -0.58237
37
frame 0 | Written by MDAnalysis XYZWriter (release 2.10.0)
       O    -1.66165    0.11747   -0.74068
       H    -2.40449    0.13398   -1.33185
       C     0.63049    0.01289   -1.44414
      Cl     2.53101    0.01051   -2.05407
       H     0.70788    0.34605   -0.43390
       H     0.34812   -1.00764   -1.56685
       H     0.18538    0.70253   -2.12159
       O    -0.39132    4.13547    0.11222
       H    -0.61679    4.45029   -0.75198
       H    -0.95498    3.34306    0.41152
       O     4.05607    2.96476   -0.59362
       H     3.35592    3.26638   -0.00266
       H     3.84205    2.13115   -0.99705
       O    -1.62308    2.08100    0.84859
       H    -2.31303    2.14498    1.50140
       H    -1.67849    0.89833   -0.09515
       O     0.90852   -1.49413    2.06700
       H     0.90508   -0.52958    2.12492
       H     0.05078   -1.83534    1.79539
       O    -1.35053   -2.34041    0.60440
       H    -0.91396   -2.95359    0.01008
       H    -1.53166   -1.50308    0.16724
       O     2.01350    3.79088    1.05580
       H     2.20726    4.35066    1.79600
       H     1.13374    3.98207    0.65958
       O     6.43880    4.27978   -0.90494
       H     6.30991    4.70680   -1.74244
       H     5.65663    3.75760   -0.68384
       O     0.69476    1.22998    1.86397
       H     1.34720    1.91024    1.72064
       H    -0.19084    1.52071    1.56515
       O     2.49644   -2.63619    0.27379
       H     3.00676   -1.98541   -0.19408
       H     2.03641   -2.24744    1.04480
       O     0.44977   -3.67127   -1.09649
       H     0.64176   -4.29427   -1.78365
       H     1.24900   -3.37079   -0.62697
37
frame 0 | Written by MDAnalysis XYZWriter (release 2.10.0)
       O    -1.57230    0.17310   -0.85335
       H    -2.35616    0.10989   -1.38549
       C     0.66492    0.02477   -1.46938
      Cl     2.60750   -0.01423   -2.00829
       H     0.72710    0.31758   -0.44635
       H     0.37115   -0.98388   -1.64658
       H     0.28171    0.75357   -2.14217
       O    -0.38808    4.13508    0.17043
       H    -0.60162    4.46343   -0.69194
       H    -0.95177    3.33400    0.44195
       O     4.06820    2.97975   -0.57733
       H     3.36390    3.26439    0.01678
       H     3.87958    2.13358   -0.96750
       O    -1.61997    2.05036    0.82165
       H    -2.32687    2.07977    1.45845
       H    -1.63088    0.92795   -0.17632
       O     0.92709   -1.49301    2.06037
       H     0.93551   -0.52851    2.12526
       H     0.06064   -1.81526    1.79491
       O    -1.35704   -2.26789    0.59396
       H    -0.93441   -2.90888    0.01807
       H    -1.48520   -1.43138    0.13959
       O     2.02392    3.77339    1.09366
       H     2.23743    4.33542    1.82675
       H     1.14151    3.97446    0.70879
       O     6.39325    4.38401   -0.94161
       H     6.26145    4.75186   -1.80630
       H     5.63188    3.84007   -0.70099
       O     0.69469    1.22258    1.87726
       H     1.34348    1.90684    1.73565
       H    -0.18983    1.50215    1.56579
       O     2.47404   -2.68507    0.26168
       H     2.99094   -2.05242   -0.22410
       H     2.03613   -2.27445    1.03359
       O     0.38735   -3.69194   -1.06108
       H     0.52968   -4.44347   -1.61953
       H     1.20182   -3.39440   -0.61563
37
frame 0 | Written by MDAnalysis XYZWriter (release 2.10.0)
       O    -1.49845    0.15701   -0.83261
       H    -2.21385    0.14552   -1.45727
       C     0.66686    0.02989   -1.43118
      Cl     2.65614   -0.00997   -1.98790
       H     0.76240    0.32063   -0.41115
       H     0.40158   -0.98328   -1.62142
       H     0.31931    0.76513   -2.11481
       O    -0.38497    4.15444    0.17691
       H    -0.60474    4.50531   -0.67482
       H    -0.94498    3.34842    0.43346
       O     4.06615    2.98441   -0.57474
       H     3.36258    3.26270    0.02224
       H     3.88256    2.13791   -0.96755
       O    -1.60833    2.05190    0.80316
       H    -2.32093    2.07682    1.43360
       H    -1.58630    0.92351   -0.16394
       O     0.91618   -1.50241    2.06252
       H     0.92452   -0.53819    2.12500
       H     0.05068   -1.82922    1.80015
       O    -1.37156   -2.29749    0.59953
       H    -0.94536   -2.93715    0.02445
       H    -1.49677   -1.46015    0.14635
       O     2.02385    3.77364    1.11033
       H     2.23971    4.33427    1.84379
       H     1.14618    3.98310    0.72100
       O     6.36118    4.42840   -0.95792
       H     6.22833    4.76941   -1.83340
       H     5.61152    3.87117   -0.71034
       O     0.70532    1.21882    1.86595
       H     1.35606    1.90432    1.73844
       H    -0.17678    1.50611    1.55755
       O     2.44857   -2.68327    0.23429
       H     2.96399   -2.04915   -0.25171
       H     2.01881   -2.27961    1.01343
       O     0.36924   -3.71744   -1.06720
       H     0.50659   -4.50524   -1.57474
       H     1.18297   -3.40615   -0.62848
37
frame 0 | Written by MDAnalysis XYZWriter (release 2.10.0)
       O    -1.41569    0.18442   -0.87207
       H    -2.12063    0.12814   -1.50608
       C     0.68666    0.03520   -1.40941
      Cl     2.75919   -0.03482   -1.94216
       H     0.80759    0.31670   -0.38995
       H     0.45183   -0.97953   -1.62533
       H     0.41255    0.78331   -2.11065
       O    -0.38779    4.15656    0.20338
       H    -0.60335    4.52394   -0.64249
       H    -0.94780    3.34889    0.43930
       O     4.07280    2.97595   -0.57611
       H     3.36451    3.23485    0.02247
       H     3.91638    2.11975   -0.96118
       O    -1.62037    2.03318    0.77186
       H    -2.34276    2.03293    1.39123
       H    -1.55205    0.94819   -0.19150
       O     0.92803   -1.50932    2.07473
       H     0.93966   -0.54504    2.13171
       H     0.05842   -1.83119    1.82199
       O    -1.38260   -2.26463    0.61669
       H    -0.96508   -2.91374    0.04514
       H    -1.47572   -1.42474    0.16259
       O     2.02190    3.74615    1.13239
       H     2.26671    4.32181    1.84490
       H     1.14709    3.97136    0.74815
       O     6.31558    4.49562   -0.97252
       H     6.20103    4.78266   -1.86969
       H     5.58226    3.91856   -0.72072
       O     0.70183    1.20972    1.85496
       H     1.34940    1.90153    1.74226
       H    -0.17952    1.49529    1.54860
       O     2.43099   -2.70091    0.21777
       H     2.94660   -2.07279   -0.27713
       H     2.02256   -2.29390    1.00494
       O     0.32525   -3.70507   -1.05341
       H     0.43839   -4.50688   -1.54470
       H     1.15051   -3.40577   -0.62653
37
frame 0 | Written by MDAnalysis XYZWriter (release 2.10.0)
       O    -1.37283    0.18745   -0.86147
       H    -2.02656    0.13493   -1.54847
       C     0.66115    0.03018   -1.35987
      Cl     2.87347   -0.05298   -1.91374
       H     0.84947    0.30800   -0.34988
       H     0.49234   -0.99230   -1.59910
       H     0.47881    0.78230   -2.08570
       O    -0.39315    4.16464    0.20674
       H    -0.60887    4.55035   -0.63082
       H    -0.94845    3.35712    0.42351
       O     4.07826    2.95917   -0.58316
       H     3.36649    3.20263    0.01533
       H     3.93997    2.09936   -0.97019
       O    -1.62926    2.01237    0.73572
       H    -2.35419    1.99730    1.35124
       H    -1.53998    0.97731   -0.17063
       O     0.93000   -1.51606    2.08822
       H     0.94361   -0.55277    2.14531
       H     0.06002   -1.83813    1.83829
       O    -1.39379   -2.26799    0.63486
       H    -0.97469   -2.91450    0.06083
       H    -1.48841   -1.42824    0.18238
       O     2.01928    3.72979    1.14882
       H     2.28659    4.31610    1.84437
       H     1.15178    3.97060    0.76260
       O     6.27529    4.54046   -0.97630
       H     6.18707    4.77895   -1.89052
       H     5.55632    3.94418   -0.72662
       O     0.71112    1.21064    1.85188
       H     1.35875    1.90442    1.74634
       H    -0.16723    1.49622    1.54786
       O     2.41748   -2.69557    0.19510
       H     2.93299   -2.06828   -0.30321
       H     2.02816   -2.29501    0.99296
       O     0.30569   -3.68331   -1.05834
       H     0.41075   -4.48191   -1.55670
       H     1.13712   -3.39143   -0.63549
37
frame 0 | Written by MDAnalysis XYZWriter (release 2.10.0)
       O    -1.36576    0.18666   -0.85376
       H    -1.92590    0.07194   -1.61644
       C     0.59967   -0.01994   -1.29888
      Cl     3.13912   -0.07504   -1.87323
       H     0.86250    0.26593   -0.30523
       H     0.54023   -1.03986   -1.59846
       H     0.56603    0.73388   -2.04383
       O    -0.41524    4.16835    0.21197
       H    -0.58973    4.58522   -0.62092
       H    -0.98306    3.38805    0.36119
       O     4.09613    2.92563   -0.60439
       H     3.37816    3.13049   -0.00472
       H     4.00218    2.05714   -0.99297
       O    -1.68601    1.95273    0.67605
       H    -2.41118    1.89114    1.28653
       H    -1.59554    1.17684   -0.02652
       O     0.94400   -1.52969    2.11054
       H     0.96532   -0.57088    2.18207
       H     0.07097   -1.84069    1.85628
       O    -1.40206   -2.23951    0.66518
       H    -0.98444   -2.89039    0.09358
       H    -1.51763   -1.40959    0.19543
       O     2.00789    3.69464    1.18117
       H     2.33506    4.29600    1.83727
       H     1.17007    3.98784    0.78496
       O     6.22586    4.59488   -0.97469
       H     6.18955    4.76169   -1.90818
       H     5.52440    3.97433   -0.73159
       O     0.72871    1.21979    1.88265
       H     1.37629    1.91534    1.77538
       H    -0.13405    1.48762    1.56053
       O     2.41226   -2.65968    0.14175
       H     2.93124   -2.03677   -0.36417
       H     2.06222   -2.27311    0.95938
       O     0.28154   -3.63947   -1.05714
       H     0.37032   -4.42793   -1.57372
       H     1.12865   -3.35000   -0.65891
37
frame 0 | Written by MDAnalysis XYZWriter (release 2.10.0)
       O    -1.38974    0.10901   -0.96341
       H    -1.87450   -0.04125   -1.76906
       C     0.51647   -0.05883   -1.33851
      Cl     3.28457   -0.10276   -1.92959
       H     0.84526    0.15359   -0.34693
       H     0.53581   -1.07812   -1.65227
       H     0.59929    0.70919   -2.07100
       O    -0.37599    4.24146    0.24079
       H    -0.50362    4.57754   -0.63596
       H    -0.95757    3.48928    0.43760
       O     4.12673    2.84467   -0.61548
       H     3.38766    2.98963   -0.02686
       H     4.07851    1.98558   -1.03747
       O    -1.78317    2.00185    0.70641
       H    -2.49631    1.84065    1.31050
       H    -1.68388    1.28202    0.02592
       O     0.98889   -1.49826    2.09595
       H     1.01227   -0.54820    2.23950
       H     0.11349   -1.79224    1.82764
       O    -1.36452   -2.19456    0.68155
       H    -0.98250   -2.88254    0.13000
       H    -1.50102   -1.39569    0.16489
       O     2.04642    3.64052    1.23333
       H     2.51931    4.29048    1.73701
       H     1.21830    3.97540    0.85402
       O     6.06686    4.73863   -0.95911
       H     6.25046    4.72725   -1.89010
       H     5.41451    4.05608   -0.74590
       O     0.72429    1.27924    2.08298
       H     1.38534    1.95078    1.91135
       H    -0.12405    1.53090    1.72429
       O     2.39700   -2.64827    0.07516
       H     2.91508   -2.03367   -0.44364
       H     2.07839   -2.25525    0.90207
       O     0.24584   -3.66855   -1.05021
       H     0.34336   -4.45066   -1.57551
       H     1.09492   -3.36290   -0.66871
37
frame 0 | Written by MDAnalysis XYZWriter (release 2.10.0)
       O    -1.33676    0.11690   -0.98792
       H    -1.81065   -0.05346   -1.79613
       C     0.49819   -0.06147   -1.32957
      Cl     3.37963   -0.11249   -1.97500
       H     0.85322    0.14534   -0.34521
       H     0.54038   -1.07967   -1.64697
       H     0.63694    0.69592   -2.06620
       O    -0.32673    4.24589    0.21686
       H    -0.43914    4.57426   -0.66502
       H    -0.92024    3.50553    0.41715
       O     4.09037    2.81453   -0.60160
       H     3.36065    2.92683    0.00445
       H     4.06032    1.96249   -1.04100
       O    -1.76004    2.01920    0.69674
       H    -2.49147    1.86255    1.27979
       H    -1.64586    1.30143    0.02399
       O     0.99735   -1.50784    2.07413
       H     1.01736   -0.55979    2.23180
       H     0.11977   -1.80565    1.82087
       O    -1.39340   -2.19933    0.68290
       H    -0.99672   -2.88611    0.13850
       H    -1.50110   -1.39518    0.17164
       O     2.05472    3.61817    1.28584
       H     2.55966    4.27804    1.74338
       H     1.24674    3.96584    0.87653
       O     5.91188    4.80900   -0.96946
       H     6.26106    4.68654   -1.84331
       H     5.28187    4.10213   -0.76633
       O     0.74145    1.26552    2.11550
       H     1.40370    1.94114    1.96161
       H    -0.10633    1.53369    1.76933
       O     2.39562   -2.61251    0.01454
       H     2.91707   -2.00292   -0.50840
       H     2.09471   -2.22607    0.84987
       O     0.22711   -3.68370   -1.01056
       H     0.31881   -4.48769   -1.50281
       H     1.08489   -3.35014   -0.67191
37
frame 0 | Written by MDAnalysis XYZWriter (release 2.10.0)
       O    -1.29976    0.10923   -1.05661
       H    -1.77337   -0.06825   -1.86335
       C     0.46497   -0.07508   -1.35950
      Cl     3.43668   -0.14450   -2.02464
       H     0.83777    0.10584   -0.37555
       H     0.53188   -1.08609   -1.69756
       H     0.65821    0.68604   -2.08208
       O    -0.21337    4.24958    0.23895
       H    -0.21012    4.51363   -0.67165
       H    -0.82842    3.52091    0.40983
       O     4.00500    2.78480   -0.61810
       H     3.32072    2.82363    0.04568
       H     4.00232    1.94587   -1.08496
       O    -1.72352    2.03797    0.63712
       H    -2.46683    1.89553    1.20869
       H    -1.61312    1.32113   -0.02898
       O     1.03439   -1.47422    2.04461
       H     1.04494   -0.53580    2.25170
       H     0.15403   -1.76999    1.79725
       O    -1.35528   -2.17385    0.68909
       H    -0.98827   -2.88155    0.15031
       H    -1.48033   -1.38619    0.15902
       O     2.10314    3.59030    1.44125
       H     2.70930    4.24325    1.76737
       H     1.31913    3.96619    1.01244
       O     5.62714    4.93774   -1.05173
       H     6.28808    4.67937   -1.68182
       H     5.03102    4.19597   -0.87327
       O     0.70843    1.29044    2.23238
       H     1.38133    1.96371    2.11725
       H    -0.10587    1.54517    1.80628
       O     2.37034   -2.61899   -0.03707
       H     2.88991   -2.02557   -0.58090
       H     2.09585   -2.21143    0.79738
       O     0.18964   -3.72666   -0.99737
       H     0.26964   -4.57661   -1.40800
       H     1.05195   -3.37753   -0.68741
37
frame 0 | Written by MDAnalysis XYZWriter (release 2.10.0)
       O    -1.23627    0.13233   -1.05756
       H    -1.71919   -0.04419   -1.85842
       C     0.45538   -0.05482   -1.33877
      Cl     3.50488   -0.18224   -2.04414
       H     0.85815    0.13431   -0.36721
       H     0.55123   -1.06863   -1.66413
       H     0.69095    0.68550   -2.07279
       O    -0.05480    4.23158    0.15818
       H     0.00322    4.45685   -0.76092
       H    -0.70714    3.53981    0.33567
       O     3.83701    2.79019   -0.74091
       H     3.26392    2.77647    0.02121
       H     3.85000    1.94512   -1.19947
       O    -1.64523    2.08120    0.63687
       H    -2.40139    1.97650    1.19954
       H    -1.55157    1.35400   -0.01579
       O     0.98075   -1.51707    2.03806
       H     0.99857   -0.57276    2.21957
       H     0.10128   -1.81637    1.79621
       O    -1.43267   -2.20475    0.66280
       H    -1.02318   -2.90064    0.13748
       H    -1.50161   -1.40068    0.14982
       O     2.16185    3.55680    1.51457
       H     2.78119    4.20120    1.83219
       H     1.41357    3.94198    1.03235
       O     5.36757    5.01822   -1.04410
       H     6.21519    4.74800   -1.37462
       H     4.78138    4.25059   -0.97077
       O     0.75752    1.24454    2.18057
       H     1.44311    1.91182    2.11403
       H    -0.05391    1.55174    1.78463
       O     2.38051   -2.61176   -0.03374
       H     2.89249   -2.01004   -0.57660
       H     2.08362   -2.21145    0.79627
       O     0.19190   -3.73991   -0.94496
       H     0.27245   -4.58959   -1.35573
       H     1.05701   -3.38011   -0.65557
37
frame 0 | Written by MDAnalysis XYZWriter (release 2.10.0)
       O    -1.10125    0.07771   -1.25055
       H    -1.56638   -0.06705   -2.06770
       C     0.51959   -0.13265   -1.47667
      Cl     3.67419   -0.32503   -2.12271
       H     0.89814   -0.06990   -0.47836
       H     0.62924   -1.10530   -1.90953
       H     0.83028    0.66933   -2.11462
       O     0.37469    4.21239   -0.00645
       H     0.73325    4.25208   -0.88545
       H    -0.30771    3.54281    0.09598
       O     3.14499    2.69701   -1.08123
       H     2.84180    2.50160   -0.19877
       H     3.36478    1.88165   -1.54810
       O    -1.33799    2.07716    0.48753
       H    -2.15401    2.06894    0.97097
       H    -1.28648    1.34967   -0.15807
       O     1.02639   -1.35603    1.97618
       H     1.05909   -0.42844    2.23548
       H     0.12949   -1.65460    1.82285
       O    -1.46861   -2.11060    0.69982
       H    -1.06179   -2.84513    0.22726
       H    -1.48325   -1.34566    0.12631
       O     2.41239    3.57385    1.64934
       H     3.20695    4.08589    1.54780
       H     1.68813    3.95782    1.13871
       O     4.47047    4.95162   -0.46180
       H     5.40523    4.79420   -0.42471
       H     4.00479    4.20245   -0.85421
       O     0.84172    1.37625    2.34594
       H     1.54429    2.02879    2.32868
       H     0.08190    1.67603    1.85111
       O     2.34460   -2.65411   -0.03357
       H     2.89527   -2.11373   -0.60125
       H     2.07000   -2.18855    0.76887
       O     0.08381   -3.72782   -0.89724
       H     0.11801   -4.59852   -1.26744
       H     0.96249   -3.38828   -0.62894
37
frame 0 | Written by MDAnalysis XYZWriter (release 2.10.0)
       O    -1.32789    0.09816   -1.31904
       H    -1.90696   -0.00831   -2.06606
       C     0.16327   -0.23304   -1.70296
      Cl     3.56138   -0.27476   -2.44411
       H     0.68964   -0.18390   -0.77281
       H     0.19111   -1.22698   -2.10791
       H     0.50060    0.51070   -2.39901
       O     0.51863    4.16337   -0.26664
       H     1.20674    3.66515   -0.71258
       H    -0.24177    3.61465   -0.08516
       O     2.55372    2.23080   -0.75447
       H     2.28815    1.84490    0.08379
       H     2.83846    1.55356   -1.38171
       O    -1.29673    2.08885    0.48608
       H    -2.02904    2.08837    1.08914
       H    -1.36811    1.39566   -0.18804
       O     1.24720   -1.13407    1.85378
       H     1.35039   -0.19119    2.00501
       H     0.33604   -1.40108    1.71858
       O    -1.27208   -2.03586    0.75020
       H    -0.86440   -2.77416    0.28056
       H    -1.50346   -1.34513    0.13432
       O     2.18969    4.25429    2.00783
       H     3.07778    4.36941    1.66560
       H     1.54901    4.53109    1.34727
       O     4.32918    4.13708    0.18506
       H     5.23387    4.14507   -0.09534
       H     3.79540    3.47523   -0.27466
       O     1.24478    1.68802    1.78886
       H     1.67606    2.49525    2.11044
       H     0.36978    1.87877    1.45027
       O     2.43065   -2.47530   -0.22352
       H     2.94049   -1.95435   -0.84652
       H     2.22658   -1.99827    0.59037
       O     0.20918   -3.73025   -0.82350
       H     0.27400   -4.64918   -1.04106
       H     1.08490   -3.31419   -0.66851
37
frame 0 | Written by MDAnalysis XYZWriter (release 2.10.0)
       O    -1.33310    0.04056   -1.36598
       H    -1.96724   -0.04591   -2.06774
       C     0.06672   -0.25970   -1.81357
      Cl     3.38817   -0.21371   -2.65452
       H     0.66381   -0.23668   -0.92465
       H     0.09882   -1.24380   -2.24746
       H     0.39222    0.49118   -2.51048
       O     0.51723    4.14482   -0.36102
       H     1.22928    3.62981   -0.74731
       H    -0.23033    3.58664   -0.15409
       O     2.62501    2.22617   -0.70763
       H     2.29747    1.79596    0.08536
       H     2.89672    1.59214   -1.38347
       O    -1.30107    2.01465    0.48311
       H    -2.03401    2.00969    1.08522
       H    -1.36845    1.32346   -0.19244
       O     1.43684   -1.03346    1.67997
       H     1.52880   -0.09893    1.87726
       H     0.51943   -1.31173    1.63228
       O    -1.16127   -1.91109    0.86144
       H    -0.82053   -2.70100    0.42272
       H    -1.42751   -1.26565    0.21221
       O     2.06578    4.36919    2.01343
       H     2.97581    4.42672    1.71205
       H     1.46979    4.60375    1.29755
       O     4.31765    4.03640    0.42447
       H     5.24466    3.85009    0.36343
       H     3.78614    3.42807   -0.10887
       O     1.25530    1.74529    1.75534
       H     1.60757    2.58294    2.08592
       H     0.36614    1.85524    1.41456
       O     2.43542   -2.48122   -0.40835
       H     2.86460   -1.97686   -1.10181
       H     2.29916   -1.95623    0.39173
       O     0.16290   -3.77210   -0.64545
       H     0.22100   -4.71363   -0.73003
       H     1.04546   -3.34249   -0.63987
37
frame 0 | Written by MDAnalysis XYZWriter (release 2.10.0)
       O    -1.32221    0.02577   -1.38578
       H    -1.97613   -0.08366   -2.06484
       C     0.00854   -0.25305   -1.81238
      Cl     3.38815   -0.17505   -2.65615
       H     0.63552   -0.18998   -0.94406
       H     0.08261   -1.25181   -2.21265
       H     0.34166    0.46504   -2.54388
       O     0.51777    4.17990   -0.34700
       H     1.22812    3.67613   -0.75057
       H    -0.23085    3.61694   -0.15867
       O     2.61893    2.25988   -0.72621
       H     2.28476    1.82464    0.06119
       H     2.88559    1.62674   -1.40567
       O    -1.30926    2.02367    0.46002
       H    -2.04939    2.02913    1.05348
       H    -1.37399    1.32772   -0.20905
       O     1.43912   -1.04250    1.70450
       H     1.52142   -0.10169    1.87549
       H     0.52516   -1.32952    1.65352
       O    -1.15610   -1.95053    0.86559
       H    -0.80109   -2.73216    0.42209
       H    -1.42076   -1.30007    0.22184
       O     2.08653    4.34941    2.01847
       H     2.99460    4.40319    1.70944
       H     1.48521    4.60317    1.31379
       O     4.34591    4.02014    0.42946
       H     5.25694    3.75932    0.43647
       H     3.80389    3.43382   -0.11874
       O     1.25040    1.74052    1.73289
       H     1.60948    2.57235    2.07178
       H     0.36080    1.85881    1.39701
       O     2.42448   -2.44921   -0.42319
       H     2.84882   -1.93585   -1.11319
       H     2.29194   -1.93610    0.38498
       O     0.18950   -3.79494   -0.63904
       H     0.27445   -4.73760   -0.67626
       H     1.06077   -3.34173   -0.64724
37
frame 0 | Written by MDAnalysis XYZWriter (release 2.10.0)
       O    -1.28844    0.02476   -1.42434
       H    -1.96380   -0.08469   -2.08096
       C    -0.02869   -0.23680   -1.83316
      Cl     3.40829   -0.16427   -2.65706
       H     0.62618   -0.17175   -0.98319
       H     0.07661   -1.23652   -2.23301
       H     0.32500    0.46734   -2.57382
       O     0.52197    4.17714   -0.35372
       H     1.23261    3.66902   -0.75193
       H    -0.22887    3.61756   -0.16549
       O     2.61599    2.25508   -0.72438
       H     2.28144    1.81665    0.06088
       H     2.88505    1.62440   -1.40573
       O    -1.31083    2.01263    0.45161
       H    -2.05112    2.00295    1.04489
       H    -1.36341    1.32036   -0.22046
       O     1.45392   -1.03761    1.70673
       H     1.53408   -0.09625    1.87568
       H     0.54028   -1.32489    1.65749
       O    -1.14984   -1.94216    0.87088
       H    -0.79396   -2.72873    0.43585
       H    -1.40377   -1.29552    0.21984
       O     2.08134    4.35259    2.01939
       H     2.99140    4.39935    1.71486
       H     1.48491    4.60585    1.31046
       O     4.34712    3.99971    0.44792
       H     5.25614    3.73206    0.45945
       H     3.80443    3.41945   -0.10609
       O     1.24729    1.74317    1.73788
       H     1.60483    2.57692    2.07370
       H     0.35889    1.85916    1.39889
       O     2.42034   -2.43826   -0.43689
       H     2.84100   -1.92508   -1.12948
       H     2.29638   -1.92569    0.37277
       O     0.19051   -3.79500   -0.61516
       H     0.28129   -4.73715   -0.65052
       H     1.05853   -3.33567   -0.64109
37
frame 0 | Written by MDAnalysis XYZWriter (release 2.10.0)
       O    -1.25598    0.02508   -1.46923
       H    -1.95409   -0.08596   -2.10026
       C    -0.06613   -0.21249   -1.86096
      Cl     3.43028   -0.15544   -2.65075
       H     0.61800   -0.13814   -1.03162
       H     0.07694   -1.21326   -2.25828
       H     0.30207    0.47826   -2.61407
       O     0.52461    4.17136   -0.35355
       H     1.23541    3.66053   -0.74863
       H    -0.22840    3.61460   -0.16705
       O     2.61664    2.25324   -0.72058
       H     2.28594    1.81112    0.06402
       H     2.88683    1.62480   -1.40402
       O    -1.30987    1.99509    0.44723
       H    -2.04608    1.96445    1.04501
       H    -1.35272    1.30989   -0.23079
       O     1.45718   -1.03692    1.71571
       H     1.53859   -0.09533    1.88266
       H     0.54325   -1.32134    1.66234
       O    -1.15112   -1.93543    0.86304
       H    -0.79149   -2.72717    0.43947
       H    -1.38762   -1.29232    0.20276
       O     2.08344    4.35312    2.01984
       H     2.99385    4.39801    1.71587
       H     1.48773    4.60538    1.31001
       O     4.35130    3.99346    0.45362
       H     5.25832    3.71935    0.47097
       H     3.80785    3.41518   -0.10171
       O     1.24978    1.74341    1.74632
       H     1.60715    2.57880    2.07838
       H     0.36372    1.85847    1.40186
       O     2.41060   -2.42628   -0.44402
       H     2.82989   -1.91252   -1.13718
       H     2.29220   -1.91588    0.36759
       O     0.19172   -3.79990   -0.59520
       H     0.29249   -4.74153   -0.61215
       H     1.05502   -3.33212   -0.63592
37
frame 0 | Written by MDAnalysis XYZWriter (release 2.10.0)
       O    -1.22346    0.02566   -1.52523
       H    -1.94869   -0.08776   -2.12356
       C    -0.10467   -0.18247   -1.90603
      Cl     3.45833   -0.14889   -2.63883
       H     0.61385   -0.09738   -1.10260
       H     0.07919   -1.18211   -2.30577
       H     0.27059    0.49965   -2.67292
       O     0.52612    4.16321   -0.34974
       H     1.23630    3.64884   -0.74203
       H    -0.22977    3.61036   -0.16490
       O     2.61560    2.24921   -0.71505
       H     2.29195    1.80316    0.07002
       H     2.88814    1.62316   -1.40022
       O    -1.30683    1.96964    0.44494
       H    -2.03262    1.90561    1.05296
       H    -1.33884    1.29554   -0.24251
       O     1.45866   -1.03508    1.72635
       H     1.54419   -0.09387    1.89325
       H     0.54365   -1.31321    1.66594
       O    -1.15447   -1.91928    0.84731
       H    -0.79255   -2.72051    0.44277
       H    -1.36419   -1.28295    0.17225
       O     2.08694    4.35537    2.02203
       H     2.99733    4.39803    1.71747
       H     1.49106    4.60561    1.31170
       O     4.35375    3.98737    0.45802
       H     5.26029    3.71167    0.47540
       H     3.80952    3.41008   -0.09751
       O     1.25539    1.74454    1.75932
       H     1.61218    2.58210    2.08665
       H     0.37276    1.85817    1.40674
       O     2.39715   -2.41509   -0.44897
       H     2.81658   -1.90198   -1.14269
       H     2.28549   -1.90638    0.36437
       O     0.19010   -3.80620   -0.56849
       H     0.30158   -4.74672   -0.56044
       H     1.04828   -3.33022   -0.62637

